*SPEF "ieee 1481-1999"
*DESIGN "user_project_wrapper"
*DATE "11:11:11 Fri 11 11, 1111"
*VENDOR "OpenRCX"
*PROGRAM "Parallel Extraction"
*VERSION "1.0"
*DESIGN_FLOW "NAME_SCOPE LOCAL" "PIN_CAP NONE"
*DIVIDER /
*DELIMITER :
*BUS_DELIMITER []
*T_UNIT 1 NS
*C_UNIT 1 PF
*R_UNIT 1 OHM
*L_UNIT 1 HENRY

*NAME_MAP
*1 analog_io[0]
*2 analog_io[10]
*3 analog_io[11]
*4 analog_io[12]
*5 analog_io[13]
*6 analog_io[14]
*7 analog_io[15]
*8 analog_io[16]
*9 analog_io[17]
*10 analog_io[18]
*11 analog_io[19]
*12 analog_io[1]
*13 analog_io[20]
*14 analog_io[21]
*15 analog_io[22]
*16 analog_io[23]
*17 analog_io[24]
*18 analog_io[25]
*19 analog_io[26]
*20 analog_io[27]
*21 analog_io[28]
*22 analog_io[2]
*23 analog_io[3]
*24 analog_io[4]
*25 analog_io[5]
*26 analog_io[6]
*27 analog_io[7]
*28 analog_io[8]
*29 analog_io[9]
*30 io_in[0]
*31 io_in[10]
*32 io_in[11]
*33 io_in[12]
*34 io_in[13]
*35 io_in[14]
*36 io_in[15]
*37 io_in[16]
*38 io_in[17]
*39 io_in[18]
*40 io_in[19]
*41 io_in[1]
*42 io_in[20]
*43 io_in[21]
*44 io_in[22]
*45 io_in[23]
*46 io_in[24]
*47 io_in[25]
*48 io_in[26]
*49 io_in[27]
*50 io_in[28]
*51 io_in[29]
*52 io_in[2]
*53 io_in[30]
*54 io_in[31]
*55 io_in[32]
*56 io_in[33]
*57 io_in[34]
*58 io_in[35]
*59 io_in[36]
*60 io_in[37]
*61 io_in[3]
*62 io_in[4]
*63 io_in[5]
*64 io_in[6]
*65 io_in[7]
*66 io_in[8]
*67 io_in[9]
*68 io_oeb[0]
*69 io_oeb[10]
*70 io_oeb[11]
*71 io_oeb[12]
*72 io_oeb[13]
*73 io_oeb[14]
*74 io_oeb[15]
*75 io_oeb[16]
*76 io_oeb[17]
*77 io_oeb[18]
*78 io_oeb[19]
*79 io_oeb[1]
*80 io_oeb[20]
*81 io_oeb[21]
*82 io_oeb[22]
*83 io_oeb[23]
*84 io_oeb[24]
*85 io_oeb[25]
*86 io_oeb[26]
*87 io_oeb[27]
*88 io_oeb[28]
*89 io_oeb[29]
*90 io_oeb[2]
*91 io_oeb[30]
*92 io_oeb[31]
*93 io_oeb[32]
*94 io_oeb[33]
*95 io_oeb[34]
*96 io_oeb[35]
*97 io_oeb[36]
*98 io_oeb[37]
*99 io_oeb[3]
*100 io_oeb[4]
*101 io_oeb[5]
*102 io_oeb[6]
*103 io_oeb[7]
*104 io_oeb[8]
*105 io_oeb[9]
*106 io_out[0]
*107 io_out[10]
*108 io_out[11]
*109 io_out[12]
*110 io_out[13]
*111 io_out[14]
*112 io_out[15]
*113 io_out[16]
*114 io_out[17]
*115 io_out[18]
*116 io_out[19]
*117 io_out[1]
*118 io_out[20]
*119 io_out[21]
*120 io_out[22]
*121 io_out[23]
*122 io_out[24]
*123 io_out[25]
*124 io_out[26]
*125 io_out[27]
*126 io_out[28]
*127 io_out[29]
*128 io_out[2]
*129 io_out[30]
*130 io_out[31]
*131 io_out[32]
*132 io_out[33]
*133 io_out[34]
*134 io_out[35]
*135 io_out[36]
*136 io_out[37]
*137 io_out[3]
*138 io_out[4]
*139 io_out[5]
*140 io_out[6]
*141 io_out[7]
*142 io_out[8]
*143 io_out[9]
*144 la_data_in[0]
*145 la_data_in[100]
*146 la_data_in[101]
*147 la_data_in[102]
*148 la_data_in[103]
*149 la_data_in[104]
*150 la_data_in[105]
*151 la_data_in[106]
*152 la_data_in[107]
*153 la_data_in[108]
*154 la_data_in[109]
*155 la_data_in[10]
*156 la_data_in[110]
*157 la_data_in[111]
*158 la_data_in[112]
*159 la_data_in[113]
*160 la_data_in[114]
*161 la_data_in[115]
*162 la_data_in[116]
*163 la_data_in[117]
*164 la_data_in[118]
*165 la_data_in[119]
*166 la_data_in[11]
*167 la_data_in[120]
*168 la_data_in[121]
*169 la_data_in[122]
*170 la_data_in[123]
*171 la_data_in[124]
*172 la_data_in[125]
*173 la_data_in[126]
*174 la_data_in[127]
*175 la_data_in[12]
*176 la_data_in[13]
*177 la_data_in[14]
*178 la_data_in[15]
*179 la_data_in[16]
*180 la_data_in[17]
*181 la_data_in[18]
*182 la_data_in[19]
*183 la_data_in[1]
*184 la_data_in[20]
*185 la_data_in[21]
*186 la_data_in[22]
*187 la_data_in[23]
*188 la_data_in[24]
*189 la_data_in[25]
*190 la_data_in[26]
*191 la_data_in[27]
*192 la_data_in[28]
*193 la_data_in[29]
*194 la_data_in[2]
*195 la_data_in[30]
*196 la_data_in[31]
*197 la_data_in[32]
*198 la_data_in[33]
*199 la_data_in[34]
*200 la_data_in[35]
*201 la_data_in[36]
*202 la_data_in[37]
*203 la_data_in[38]
*204 la_data_in[39]
*205 la_data_in[3]
*206 la_data_in[40]
*207 la_data_in[41]
*208 la_data_in[42]
*209 la_data_in[43]
*210 la_data_in[44]
*211 la_data_in[45]
*212 la_data_in[46]
*213 la_data_in[47]
*214 la_data_in[48]
*215 la_data_in[49]
*216 la_data_in[4]
*217 la_data_in[50]
*218 la_data_in[51]
*219 la_data_in[52]
*220 la_data_in[53]
*221 la_data_in[54]
*222 la_data_in[55]
*223 la_data_in[56]
*224 la_data_in[57]
*225 la_data_in[58]
*226 la_data_in[59]
*227 la_data_in[5]
*228 la_data_in[60]
*229 la_data_in[61]
*230 la_data_in[62]
*231 la_data_in[63]
*232 la_data_in[64]
*233 la_data_in[65]
*234 la_data_in[66]
*235 la_data_in[67]
*236 la_data_in[68]
*237 la_data_in[69]
*238 la_data_in[6]
*239 la_data_in[70]
*240 la_data_in[71]
*241 la_data_in[72]
*242 la_data_in[73]
*243 la_data_in[74]
*244 la_data_in[75]
*245 la_data_in[76]
*246 la_data_in[77]
*247 la_data_in[78]
*248 la_data_in[79]
*249 la_data_in[7]
*250 la_data_in[80]
*251 la_data_in[81]
*252 la_data_in[82]
*253 la_data_in[83]
*254 la_data_in[84]
*255 la_data_in[85]
*256 la_data_in[86]
*257 la_data_in[87]
*258 la_data_in[88]
*259 la_data_in[89]
*260 la_data_in[8]
*261 la_data_in[90]
*262 la_data_in[91]
*263 la_data_in[92]
*264 la_data_in[93]
*265 la_data_in[94]
*266 la_data_in[95]
*267 la_data_in[96]
*268 la_data_in[97]
*269 la_data_in[98]
*270 la_data_in[99]
*271 la_data_in[9]
*272 la_data_out[0]
*273 la_data_out[100]
*274 la_data_out[101]
*275 la_data_out[102]
*276 la_data_out[103]
*277 la_data_out[104]
*278 la_data_out[105]
*279 la_data_out[106]
*280 la_data_out[107]
*281 la_data_out[108]
*282 la_data_out[109]
*283 la_data_out[10]
*284 la_data_out[110]
*285 la_data_out[111]
*286 la_data_out[112]
*287 la_data_out[113]
*288 la_data_out[114]
*289 la_data_out[115]
*290 la_data_out[116]
*291 la_data_out[117]
*292 la_data_out[118]
*293 la_data_out[119]
*294 la_data_out[11]
*295 la_data_out[120]
*296 la_data_out[121]
*297 la_data_out[122]
*298 la_data_out[123]
*299 la_data_out[124]
*300 la_data_out[125]
*301 la_data_out[126]
*302 la_data_out[127]
*303 la_data_out[12]
*304 la_data_out[13]
*305 la_data_out[14]
*306 la_data_out[15]
*307 la_data_out[16]
*308 la_data_out[17]
*309 la_data_out[18]
*310 la_data_out[19]
*311 la_data_out[1]
*312 la_data_out[20]
*313 la_data_out[21]
*314 la_data_out[22]
*315 la_data_out[23]
*316 la_data_out[24]
*317 la_data_out[25]
*318 la_data_out[26]
*319 la_data_out[27]
*320 la_data_out[28]
*321 la_data_out[29]
*322 la_data_out[2]
*323 la_data_out[30]
*324 la_data_out[31]
*325 la_data_out[32]
*326 la_data_out[33]
*327 la_data_out[34]
*328 la_data_out[35]
*329 la_data_out[36]
*330 la_data_out[37]
*331 la_data_out[38]
*332 la_data_out[39]
*333 la_data_out[3]
*334 la_data_out[40]
*335 la_data_out[41]
*336 la_data_out[42]
*337 la_data_out[43]
*338 la_data_out[44]
*339 la_data_out[45]
*340 la_data_out[46]
*341 la_data_out[47]
*342 la_data_out[48]
*343 la_data_out[49]
*344 la_data_out[4]
*345 la_data_out[50]
*346 la_data_out[51]
*347 la_data_out[52]
*348 la_data_out[53]
*349 la_data_out[54]
*350 la_data_out[55]
*351 la_data_out[56]
*352 la_data_out[57]
*353 la_data_out[58]
*354 la_data_out[59]
*355 la_data_out[5]
*356 la_data_out[60]
*357 la_data_out[61]
*358 la_data_out[62]
*359 la_data_out[63]
*360 la_data_out[64]
*361 la_data_out[65]
*362 la_data_out[66]
*363 la_data_out[67]
*364 la_data_out[68]
*365 la_data_out[69]
*366 la_data_out[6]
*367 la_data_out[70]
*368 la_data_out[71]
*369 la_data_out[72]
*370 la_data_out[73]
*371 la_data_out[74]
*372 la_data_out[75]
*373 la_data_out[76]
*374 la_data_out[77]
*375 la_data_out[78]
*376 la_data_out[79]
*377 la_data_out[7]
*378 la_data_out[80]
*379 la_data_out[81]
*380 la_data_out[82]
*381 la_data_out[83]
*382 la_data_out[84]
*383 la_data_out[85]
*384 la_data_out[86]
*385 la_data_out[87]
*386 la_data_out[88]
*387 la_data_out[89]
*388 la_data_out[8]
*389 la_data_out[90]
*390 la_data_out[91]
*391 la_data_out[92]
*392 la_data_out[93]
*393 la_data_out[94]
*394 la_data_out[95]
*395 la_data_out[96]
*396 la_data_out[97]
*397 la_data_out[98]
*398 la_data_out[99]
*399 la_data_out[9]
*400 la_oenb[0]
*401 la_oenb[100]
*402 la_oenb[101]
*403 la_oenb[102]
*404 la_oenb[103]
*405 la_oenb[104]
*406 la_oenb[105]
*407 la_oenb[106]
*408 la_oenb[107]
*409 la_oenb[108]
*410 la_oenb[109]
*411 la_oenb[10]
*412 la_oenb[110]
*413 la_oenb[111]
*414 la_oenb[112]
*415 la_oenb[113]
*416 la_oenb[114]
*417 la_oenb[115]
*418 la_oenb[116]
*419 la_oenb[117]
*420 la_oenb[118]
*421 la_oenb[119]
*422 la_oenb[11]
*423 la_oenb[120]
*424 la_oenb[121]
*425 la_oenb[122]
*426 la_oenb[123]
*427 la_oenb[124]
*428 la_oenb[125]
*429 la_oenb[126]
*430 la_oenb[127]
*431 la_oenb[12]
*432 la_oenb[13]
*433 la_oenb[14]
*434 la_oenb[15]
*435 la_oenb[16]
*436 la_oenb[17]
*437 la_oenb[18]
*438 la_oenb[19]
*439 la_oenb[1]
*440 la_oenb[20]
*441 la_oenb[21]
*442 la_oenb[22]
*443 la_oenb[23]
*444 la_oenb[24]
*445 la_oenb[25]
*446 la_oenb[26]
*447 la_oenb[27]
*448 la_oenb[28]
*449 la_oenb[29]
*450 la_oenb[2]
*451 la_oenb[30]
*452 la_oenb[31]
*453 la_oenb[32]
*454 la_oenb[33]
*455 la_oenb[34]
*456 la_oenb[35]
*457 la_oenb[36]
*458 la_oenb[37]
*459 la_oenb[38]
*460 la_oenb[39]
*461 la_oenb[3]
*462 la_oenb[40]
*463 la_oenb[41]
*464 la_oenb[42]
*465 la_oenb[43]
*466 la_oenb[44]
*467 la_oenb[45]
*468 la_oenb[46]
*469 la_oenb[47]
*470 la_oenb[48]
*471 la_oenb[49]
*472 la_oenb[4]
*473 la_oenb[50]
*474 la_oenb[51]
*475 la_oenb[52]
*476 la_oenb[53]
*477 la_oenb[54]
*478 la_oenb[55]
*479 la_oenb[56]
*480 la_oenb[57]
*481 la_oenb[58]
*482 la_oenb[59]
*483 la_oenb[5]
*484 la_oenb[60]
*485 la_oenb[61]
*486 la_oenb[62]
*487 la_oenb[63]
*488 la_oenb[64]
*489 la_oenb[65]
*490 la_oenb[66]
*491 la_oenb[67]
*492 la_oenb[68]
*493 la_oenb[69]
*494 la_oenb[6]
*495 la_oenb[70]
*496 la_oenb[71]
*497 la_oenb[72]
*498 la_oenb[73]
*499 la_oenb[74]
*500 la_oenb[75]
*501 la_oenb[76]
*502 la_oenb[77]
*503 la_oenb[78]
*504 la_oenb[79]
*505 la_oenb[7]
*506 la_oenb[80]
*507 la_oenb[81]
*508 la_oenb[82]
*509 la_oenb[83]
*510 la_oenb[84]
*511 la_oenb[85]
*512 la_oenb[86]
*513 la_oenb[87]
*514 la_oenb[88]
*515 la_oenb[89]
*516 la_oenb[8]
*517 la_oenb[90]
*518 la_oenb[91]
*519 la_oenb[92]
*520 la_oenb[93]
*521 la_oenb[94]
*522 la_oenb[95]
*523 la_oenb[96]
*524 la_oenb[97]
*525 la_oenb[98]
*526 la_oenb[99]
*527 la_oenb[9]
*528 user_clock2
*529 user_irq[0]
*530 user_irq[1]
*531 user_irq[2]
*540 wb_clk_i
*541 wb_rst_i
*542 wbs_ack_o
*543 wbs_adr_i[0]
*544 wbs_adr_i[10]
*545 wbs_adr_i[11]
*546 wbs_adr_i[12]
*547 wbs_adr_i[13]
*548 wbs_adr_i[14]
*549 wbs_adr_i[15]
*550 wbs_adr_i[16]
*551 wbs_adr_i[17]
*552 wbs_adr_i[18]
*553 wbs_adr_i[19]
*554 wbs_adr_i[1]
*555 wbs_adr_i[20]
*556 wbs_adr_i[21]
*557 wbs_adr_i[22]
*558 wbs_adr_i[23]
*559 wbs_adr_i[24]
*560 wbs_adr_i[25]
*561 wbs_adr_i[26]
*562 wbs_adr_i[27]
*563 wbs_adr_i[28]
*564 wbs_adr_i[29]
*565 wbs_adr_i[2]
*566 wbs_adr_i[30]
*567 wbs_adr_i[31]
*568 wbs_adr_i[3]
*569 wbs_adr_i[4]
*570 wbs_adr_i[5]
*571 wbs_adr_i[6]
*572 wbs_adr_i[7]
*573 wbs_adr_i[8]
*574 wbs_adr_i[9]
*575 wbs_cyc_i
*576 wbs_dat_i[0]
*577 wbs_dat_i[10]
*578 wbs_dat_i[11]
*579 wbs_dat_i[12]
*580 wbs_dat_i[13]
*581 wbs_dat_i[14]
*582 wbs_dat_i[15]
*583 wbs_dat_i[16]
*584 wbs_dat_i[17]
*585 wbs_dat_i[18]
*586 wbs_dat_i[19]
*587 wbs_dat_i[1]
*588 wbs_dat_i[20]
*589 wbs_dat_i[21]
*590 wbs_dat_i[22]
*591 wbs_dat_i[23]
*592 wbs_dat_i[24]
*593 wbs_dat_i[25]
*594 wbs_dat_i[26]
*595 wbs_dat_i[27]
*596 wbs_dat_i[28]
*597 wbs_dat_i[29]
*598 wbs_dat_i[2]
*599 wbs_dat_i[30]
*600 wbs_dat_i[31]
*601 wbs_dat_i[3]
*602 wbs_dat_i[4]
*603 wbs_dat_i[5]
*604 wbs_dat_i[6]
*605 wbs_dat_i[7]
*606 wbs_dat_i[8]
*607 wbs_dat_i[9]
*608 wbs_dat_o[0]
*609 wbs_dat_o[10]
*610 wbs_dat_o[11]
*611 wbs_dat_o[12]
*612 wbs_dat_o[13]
*613 wbs_dat_o[14]
*614 wbs_dat_o[15]
*615 wbs_dat_o[16]
*616 wbs_dat_o[17]
*617 wbs_dat_o[18]
*618 wbs_dat_o[19]
*619 wbs_dat_o[1]
*620 wbs_dat_o[20]
*621 wbs_dat_o[21]
*622 wbs_dat_o[22]
*623 wbs_dat_o[23]
*624 wbs_dat_o[24]
*625 wbs_dat_o[25]
*626 wbs_dat_o[26]
*627 wbs_dat_o[27]
*628 wbs_dat_o[28]
*629 wbs_dat_o[29]
*630 wbs_dat_o[2]
*631 wbs_dat_o[30]
*632 wbs_dat_o[31]
*633 wbs_dat_o[3]
*634 wbs_dat_o[4]
*635 wbs_dat_o[5]
*636 wbs_dat_o[6]
*637 wbs_dat_o[7]
*638 wbs_dat_o[8]
*639 wbs_dat_o[9]
*640 wbs_sel_i[0]
*641 wbs_sel_i[1]
*642 wbs_sel_i[2]
*643 wbs_sel_i[3]
*644 wbs_stb_i
*645 wbs_we_i
*646 phase0
*647 vco_enb
*648 vco_0
*649 vco_adc_wrapper_1

*PORTS
analog_io[0] I
analog_io[10] I
analog_io[11] I
analog_io[12] I
analog_io[13] I
analog_io[14] I
analog_io[15] I
analog_io[16] I
analog_io[17] I
analog_io[18] I
analog_io[19] I
analog_io[1] I
analog_io[20] I
analog_io[21] I
analog_io[22] I
analog_io[23] I
analog_io[24] I
analog_io[25] I
analog_io[26] I
analog_io[27] I
analog_io[28] I
analog_io[2] I
analog_io[3] I
analog_io[4] I
analog_io[5] I
analog_io[6] I
analog_io[7] I
analog_io[8] I
analog_io[9] I
io_in[0] I
io_in[10] I
io_in[11] I
io_in[12] I
io_in[13] I
io_in[14] I
io_in[15] I
io_in[16] I
io_in[17] I
io_in[18] I
io_in[19] I
io_in[1] I
io_in[20] I
io_in[21] I
io_in[22] I
io_in[23] I
io_in[24] I
io_in[25] I
io_in[26] I
io_in[27] I
io_in[28] I
io_in[29] I
io_in[2] I
io_in[30] I
io_in[31] I
io_in[32] I
io_in[33] I
io_in[34] I
io_in[35] I
io_in[36] I
io_in[37] I
io_in[3] I
io_in[4] I
io_in[5] I
io_in[6] I
io_in[7] I
io_in[8] I
io_in[9] I
io_oeb[0] O
io_oeb[10] O
io_oeb[11] O
io_oeb[12] O
io_oeb[13] O
io_oeb[14] O
io_oeb[15] O
io_oeb[16] O
io_oeb[17] O
io_oeb[18] O
io_oeb[19] O
io_oeb[1] O
io_oeb[20] O
io_oeb[21] O
io_oeb[22] O
io_oeb[23] O
io_oeb[24] O
io_oeb[25] O
io_oeb[26] O
io_oeb[27] O
io_oeb[28] O
io_oeb[29] O
io_oeb[2] O
io_oeb[30] O
io_oeb[31] O
io_oeb[32] O
io_oeb[33] O
io_oeb[34] O
io_oeb[35] O
io_oeb[36] O
io_oeb[37] O
io_oeb[3] O
io_oeb[4] O
io_oeb[5] O
io_oeb[6] O
io_oeb[7] O
io_oeb[8] O
io_oeb[9] O
io_out[0] O
io_out[10] O
io_out[11] O
io_out[12] O
io_out[13] O
io_out[14] O
io_out[15] O
io_out[16] O
io_out[17] O
io_out[18] O
io_out[19] O
io_out[1] O
io_out[20] O
io_out[21] O
io_out[22] O
io_out[23] O
io_out[24] O
io_out[25] O
io_out[26] O
io_out[27] O
io_out[28] O
io_out[29] O
io_out[2] O
io_out[30] O
io_out[31] O
io_out[32] O
io_out[33] O
io_out[34] O
io_out[35] O
io_out[36] O
io_out[37] O
io_out[3] O
io_out[4] O
io_out[5] O
io_out[6] O
io_out[7] O
io_out[8] O
io_out[9] O
la_data_in[0] I
la_data_in[100] I
la_data_in[101] I
la_data_in[102] I
la_data_in[103] I
la_data_in[104] I
la_data_in[105] I
la_data_in[106] I
la_data_in[107] I
la_data_in[108] I
la_data_in[109] I
la_data_in[10] I
la_data_in[110] I
la_data_in[111] I
la_data_in[112] I
la_data_in[113] I
la_data_in[114] I
la_data_in[115] I
la_data_in[116] I
la_data_in[117] I
la_data_in[118] I
la_data_in[119] I
la_data_in[11] I
la_data_in[120] I
la_data_in[121] I
la_data_in[122] I
la_data_in[123] I
la_data_in[124] I
la_data_in[125] I
la_data_in[126] I
la_data_in[127] I
la_data_in[12] I
la_data_in[13] I
la_data_in[14] I
la_data_in[15] I
la_data_in[16] I
la_data_in[17] I
la_data_in[18] I
la_data_in[19] I
la_data_in[1] I
la_data_in[20] I
la_data_in[21] I
la_data_in[22] I
la_data_in[23] I
la_data_in[24] I
la_data_in[25] I
la_data_in[26] I
la_data_in[27] I
la_data_in[28] I
la_data_in[29] I
la_data_in[2] I
la_data_in[30] I
la_data_in[31] I
la_data_in[32] I
la_data_in[33] I
la_data_in[34] I
la_data_in[35] I
la_data_in[36] I
la_data_in[37] I
la_data_in[38] I
la_data_in[39] I
la_data_in[3] I
la_data_in[40] I
la_data_in[41] I
la_data_in[42] I
la_data_in[43] I
la_data_in[44] I
la_data_in[45] I
la_data_in[46] I
la_data_in[47] I
la_data_in[48] I
la_data_in[49] I
la_data_in[4] I
la_data_in[50] I
la_data_in[51] I
la_data_in[52] I
la_data_in[53] I
la_data_in[54] I
la_data_in[55] I
la_data_in[56] I
la_data_in[57] I
la_data_in[58] I
la_data_in[59] I
la_data_in[5] I
la_data_in[60] I
la_data_in[61] I
la_data_in[62] I
la_data_in[63] I
la_data_in[64] I
la_data_in[65] I
la_data_in[66] I
la_data_in[67] I
la_data_in[68] I
la_data_in[69] I
la_data_in[6] I
la_data_in[70] I
la_data_in[71] I
la_data_in[72] I
la_data_in[73] I
la_data_in[74] I
la_data_in[75] I
la_data_in[76] I
la_data_in[77] I
la_data_in[78] I
la_data_in[79] I
la_data_in[7] I
la_data_in[80] I
la_data_in[81] I
la_data_in[82] I
la_data_in[83] I
la_data_in[84] I
la_data_in[85] I
la_data_in[86] I
la_data_in[87] I
la_data_in[88] I
la_data_in[89] I
la_data_in[8] I
la_data_in[90] I
la_data_in[91] I
la_data_in[92] I
la_data_in[93] I
la_data_in[94] I
la_data_in[95] I
la_data_in[96] I
la_data_in[97] I
la_data_in[98] I
la_data_in[99] I
la_data_in[9] I
la_data_out[0] O
la_data_out[100] O
la_data_out[101] O
la_data_out[102] O
la_data_out[103] O
la_data_out[104] O
la_data_out[105] O
la_data_out[106] O
la_data_out[107] O
la_data_out[108] O
la_data_out[109] O
la_data_out[10] O
la_data_out[110] O
la_data_out[111] O
la_data_out[112] O
la_data_out[113] O
la_data_out[114] O
la_data_out[115] O
la_data_out[116] O
la_data_out[117] O
la_data_out[118] O
la_data_out[119] O
la_data_out[11] O
la_data_out[120] O
la_data_out[121] O
la_data_out[122] O
la_data_out[123] O
la_data_out[124] O
la_data_out[125] O
la_data_out[126] O
la_data_out[127] O
la_data_out[12] O
la_data_out[13] O
la_data_out[14] O
la_data_out[15] O
la_data_out[16] O
la_data_out[17] O
la_data_out[18] O
la_data_out[19] O
la_data_out[1] O
la_data_out[20] O
la_data_out[21] O
la_data_out[22] O
la_data_out[23] O
la_data_out[24] O
la_data_out[25] O
la_data_out[26] O
la_data_out[27] O
la_data_out[28] O
la_data_out[29] O
la_data_out[2] O
la_data_out[30] O
la_data_out[31] O
la_data_out[32] O
la_data_out[33] O
la_data_out[34] O
la_data_out[35] O
la_data_out[36] O
la_data_out[37] O
la_data_out[38] O
la_data_out[39] O
la_data_out[3] O
la_data_out[40] O
la_data_out[41] O
la_data_out[42] O
la_data_out[43] O
la_data_out[44] O
la_data_out[45] O
la_data_out[46] O
la_data_out[47] O
la_data_out[48] O
la_data_out[49] O
la_data_out[4] O
la_data_out[50] O
la_data_out[51] O
la_data_out[52] O
la_data_out[53] O
la_data_out[54] O
la_data_out[55] O
la_data_out[56] O
la_data_out[57] O
la_data_out[58] O
la_data_out[59] O
la_data_out[5] O
la_data_out[60] O
la_data_out[61] O
la_data_out[62] O
la_data_out[63] O
la_data_out[64] O
la_data_out[65] O
la_data_out[66] O
la_data_out[67] O
la_data_out[68] O
la_data_out[69] O
la_data_out[6] O
la_data_out[70] O
la_data_out[71] O
la_data_out[72] O
la_data_out[73] O
la_data_out[74] O
la_data_out[75] O
la_data_out[76] O
la_data_out[77] O
la_data_out[78] O
la_data_out[79] O
la_data_out[7] O
la_data_out[80] O
la_data_out[81] O
la_data_out[82] O
la_data_out[83] O
la_data_out[84] O
la_data_out[85] O
la_data_out[86] O
la_data_out[87] O
la_data_out[88] O
la_data_out[89] O
la_data_out[8] O
la_data_out[90] O
la_data_out[91] O
la_data_out[92] O
la_data_out[93] O
la_data_out[94] O
la_data_out[95] O
la_data_out[96] O
la_data_out[97] O
la_data_out[98] O
la_data_out[99] O
la_data_out[9] O
la_oenb[0] I
la_oenb[100] I
la_oenb[101] I
la_oenb[102] I
la_oenb[103] I
la_oenb[104] I
la_oenb[105] I
la_oenb[106] I
la_oenb[107] I
la_oenb[108] I
la_oenb[109] I
la_oenb[10] I
la_oenb[110] I
la_oenb[111] I
la_oenb[112] I
la_oenb[113] I
la_oenb[114] I
la_oenb[115] I
la_oenb[116] I
la_oenb[117] I
la_oenb[118] I
la_oenb[119] I
la_oenb[11] I
la_oenb[120] I
la_oenb[121] I
la_oenb[122] I
la_oenb[123] I
la_oenb[124] I
la_oenb[125] I
la_oenb[126] I
la_oenb[127] I
la_oenb[12] I
la_oenb[13] I
la_oenb[14] I
la_oenb[15] I
la_oenb[16] I
la_oenb[17] I
la_oenb[18] I
la_oenb[19] I
la_oenb[1] I
la_oenb[20] I
la_oenb[21] I
la_oenb[22] I
la_oenb[23] I
la_oenb[24] I
la_oenb[25] I
la_oenb[26] I
la_oenb[27] I
la_oenb[28] I
la_oenb[29] I
la_oenb[2] I
la_oenb[30] I
la_oenb[31] I
la_oenb[32] I
la_oenb[33] I
la_oenb[34] I
la_oenb[35] I
la_oenb[36] I
la_oenb[37] I
la_oenb[38] I
la_oenb[39] I
la_oenb[3] I
la_oenb[40] I
la_oenb[41] I
la_oenb[42] I
la_oenb[43] I
la_oenb[44] I
la_oenb[45] I
la_oenb[46] I
la_oenb[47] I
la_oenb[48] I
la_oenb[49] I
la_oenb[4] I
la_oenb[50] I
la_oenb[51] I
la_oenb[52] I
la_oenb[53] I
la_oenb[54] I
la_oenb[55] I
la_oenb[56] I
la_oenb[57] I
la_oenb[58] I
la_oenb[59] I
la_oenb[5] I
la_oenb[60] I
la_oenb[61] I
la_oenb[62] I
la_oenb[63] I
la_oenb[64] I
la_oenb[65] I
la_oenb[66] I
la_oenb[67] I
la_oenb[68] I
la_oenb[69] I
la_oenb[6] I
la_oenb[70] I
la_oenb[71] I
la_oenb[72] I
la_oenb[73] I
la_oenb[74] I
la_oenb[75] I
la_oenb[76] I
la_oenb[77] I
la_oenb[78] I
la_oenb[79] I
la_oenb[7] I
la_oenb[80] I
la_oenb[81] I
la_oenb[82] I
la_oenb[83] I
la_oenb[84] I
la_oenb[85] I
la_oenb[86] I
la_oenb[87] I
la_oenb[88] I
la_oenb[89] I
la_oenb[8] I
la_oenb[90] I
la_oenb[91] I
la_oenb[92] I
la_oenb[93] I
la_oenb[94] I
la_oenb[95] I
la_oenb[96] I
la_oenb[97] I
la_oenb[98] I
la_oenb[99] I
la_oenb[9] I
user_clock2 I
user_irq[0] O
user_irq[1] O
user_irq[2] O
wb_clk_i I
wb_rst_i I
wbs_ack_o O
wbs_adr_i[0] I
wbs_adr_i[10] I
wbs_adr_i[11] I
wbs_adr_i[12] I
wbs_adr_i[13] I
wbs_adr_i[14] I
wbs_adr_i[15] I
wbs_adr_i[16] I
wbs_adr_i[17] I
wbs_adr_i[18] I
wbs_adr_i[19] I
wbs_adr_i[1] I
wbs_adr_i[20] I
wbs_adr_i[21] I
wbs_adr_i[22] I
wbs_adr_i[23] I
wbs_adr_i[24] I
wbs_adr_i[25] I
wbs_adr_i[26] I
wbs_adr_i[27] I
wbs_adr_i[28] I
wbs_adr_i[29] I
wbs_adr_i[2] I
wbs_adr_i[30] I
wbs_adr_i[31] I
wbs_adr_i[3] I
wbs_adr_i[4] I
wbs_adr_i[5] I
wbs_adr_i[6] I
wbs_adr_i[7] I
wbs_adr_i[8] I
wbs_adr_i[9] I
wbs_cyc_i I
wbs_dat_i[0] I
wbs_dat_i[10] I
wbs_dat_i[11] I
wbs_dat_i[12] I
wbs_dat_i[13] I
wbs_dat_i[14] I
wbs_dat_i[15] I
wbs_dat_i[16] I
wbs_dat_i[17] I
wbs_dat_i[18] I
wbs_dat_i[19] I
wbs_dat_i[1] I
wbs_dat_i[20] I
wbs_dat_i[21] I
wbs_dat_i[22] I
wbs_dat_i[23] I
wbs_dat_i[24] I
wbs_dat_i[25] I
wbs_dat_i[26] I
wbs_dat_i[27] I
wbs_dat_i[28] I
wbs_dat_i[29] I
wbs_dat_i[2] I
wbs_dat_i[30] I
wbs_dat_i[31] I
wbs_dat_i[3] I
wbs_dat_i[4] I
wbs_dat_i[5] I
wbs_dat_i[6] I
wbs_dat_i[7] I
wbs_dat_i[8] I
wbs_dat_i[9] I
wbs_dat_o[0] O
wbs_dat_o[10] O
wbs_dat_o[11] O
wbs_dat_o[12] O
wbs_dat_o[13] O
wbs_dat_o[14] O
wbs_dat_o[15] O
wbs_dat_o[16] O
wbs_dat_o[17] O
wbs_dat_o[18] O
wbs_dat_o[19] O
wbs_dat_o[1] O
wbs_dat_o[20] O
wbs_dat_o[21] O
wbs_dat_o[22] O
wbs_dat_o[23] O
wbs_dat_o[24] O
wbs_dat_o[25] O
wbs_dat_o[26] O
wbs_dat_o[27] O
wbs_dat_o[28] O
wbs_dat_o[29] O
wbs_dat_o[2] O
wbs_dat_o[30] O
wbs_dat_o[31] O
wbs_dat_o[3] O
wbs_dat_o[4] O
wbs_dat_o[5] O
wbs_dat_o[6] O
wbs_dat_o[7] O
wbs_dat_o[8] O
wbs_dat_o[9] O
wbs_sel_i[0] I
wbs_sel_i[1] I
wbs_sel_i[2] I
wbs_sel_i[3] I
wbs_stb_i I
wbs_we_i I

*D_NET *540 0.37868
*CONN
*P wb_clk_i I
*I *649:wb_clk_i I *D vco_adc_wrapper
*I *648:clk I *D vco_adc2
*CAP
1 wb_clk_i 0.000678922
2 *649:wb_clk_i 0.00150556
3 *648:clk 0.111792
4 *540:11 0.111792
5 *540:9 0.00388021
6 *540:7 0.00305357
7 *648:clk *647:15 0.143603
8 *649:wb_clk_i *649:wbs_we_i 0.0013617
9 *540:9 *649:wbs_we_i 0.00101265
*RES
1 wb_clk_i *540:7 18.375 
2 *540:7 *540:9 46.9464 
3 *540:9 *540:11 4.5 
4 *540:11 *648:clk 2960.04 
5 *540:9 *649:wb_clk_i 34.3304 
*END

*D_NET *541 0.0164931
*CONN
*P wb_rst_i I
*I *649:wb_rst_i I *D vco_adc_wrapper
*CAP
1 wb_rst_i 0.00418115
2 *649:wb_rst_i 0.00418115
3 *649:wb_rst_i wbs_ack_o 0.000149685
4 *649:wb_rst_i wbs_dat_o[2] 9.75805e-05
5 *649:wb_rst_i *649:wbs_cyc_i 0.000301741
6 *649:wb_rst_i *649:wbs_dat_i[0] 0.00531265
7 *649:wb_rst_i *649:wbs_stb_i 0.00103929
8 *649:wb_rst_i *598:11 0.000301534
9 *649:wb_rst_i *619:11 0.000928282
*RES
1 wb_rst_i *649:wb_rst_i 36.9302 
*END

*D_NET *542 0.0179494
*CONN
*P wbs_ack_o O
*I *649:wbs_ack_o O *D vco_adc_wrapper
*CAP
1 wbs_ack_o 0.0028448
2 *649:wbs_ack_o 0.0028448
3 wbs_ack_o wbs_dat_o[0] 0.00180697
4 wbs_ack_o wbs_dat_o[2] 0.000789115
5 wbs_ack_o *649:wbs_cyc_i 0.00918459
6 wbs_ack_o *568:17 0.000329461
7 wbs_ack_o *601:13 0
8 *649:wb_rst_i wbs_ack_o 0.000149685
*RES
1 *649:wbs_ack_o wbs_ack_o 34.9379 
*END

*D_NET *543 0.0252135
*CONN
*P wbs_adr_i[0] I
*I *649:wbs_adr_i[0] I *D vco_adc_wrapper
*CAP
1 wbs_adr_i[0] 0.00352316
2 *649:wbs_adr_i[0] 0.00352316
3 *649:wbs_adr_i[0] *649:wbs_adr_i[1] 0.0094851
4 *649:wbs_adr_i[0] *649:wbs_adr_i[2] 0.00717164
5 *649:wbs_adr_i[0] *649:wbs_sel_i[1] 0.000289486
6 *649:wbs_adr_i[0] *649:wbs_we_i 0.00122095
*RES
1 wbs_adr_i[0] *649:wbs_adr_i[0] 37.7016 
*END

*D_NET *544 0.0567064
*CONN
*P wbs_adr_i[10] I
*I *649:wbs_adr_i[10] I *D vco_adc_wrapper
*CAP
1 wbs_adr_i[10] 0.00284457
2 *649:wbs_adr_i[10] 0.00567563
3 *544:15 0.0085202
4 *649:wbs_adr_i[10] *577:9 0.002412
5 *649:wbs_adr_i[10] *585:9 0.0161978
6 *649:wbs_adr_i[10] *602:13 0
7 *649:wbs_adr_i[10] *603:11 0
8 *649:wbs_adr_i[10] *612:11 0
9 *649:wbs_adr_i[10] *613:19 0.000238638
10 *649:wbs_adr_i[10] *614:11 0.00463226
11 *649:wbs_adr_i[10] *615:11 0
12 *544:15 wbs_dat_o[13] 0.00190081
13 *544:15 wbs_dat_o[15] 0.000439038
14 *544:15 wbs_dat_o[9] 0.00154751
15 *544:15 *649:wbs_adr_i[2] 0.00101096
16 *544:15 *649:wbs_sel_i[1] 1.8957e-06
17 *544:15 *547:15 0.000399915
18 *544:15 *550:7 0.000172226
19 *544:15 *570:9 0.0107129
*RES
1 wbs_adr_i[10] *544:15 42.7535 
2 *544:15 *649:wbs_adr_i[10] 42.7907 
*END

*D_NET *545 0.0734643
*CONN
*P wbs_adr_i[11] I
*I *649:wbs_adr_i[11] I *D vco_adc_wrapper
*CAP
1 wbs_adr_i[11] 0.000812059
2 *649:wbs_adr_i[11] 0
3 *545:9 0.00591663
4 *545:7 0.00672869
5 *545:7 *649:wbs_dat_i[2] 0
6 *545:9 wbs_dat_o[9] 0.0142605
7 *545:9 *546:15 0.00121862
8 *545:9 *546:17 0.000263191
9 *545:9 *547:19 0.02228
10 *545:9 *548:9 0.00117022
11 *545:9 *549:9 0.00392435
12 *545:9 *552:13 0.000126702
13 *545:9 *568:17 0.000594416
14 *545:9 *580:15 2.4775e-05
15 *545:9 *586:9 0.00921241
16 *545:9 *594:9 0.00537333
17 *545:9 *625:19 0.00123762
18 *545:9 *628:31 0.000320737
*RES
1 wbs_adr_i[11] *545:7 16.8296 
2 *545:7 *545:9 51.1062 
3 *545:9 *649:wbs_adr_i[11] 3.41 
*END

*D_NET *546 0.0620145
*CONN
*P wbs_adr_i[12] I
*I *649:wbs_adr_i[12] I *D vco_adc_wrapper
*CAP
1 wbs_adr_i[12] 0.00152338
2 *649:wbs_adr_i[12] 0
3 *546:17 0.00670613
4 *546:15 0.00822951
5 *546:15 wbs_dat_o[2] 0
6 *546:15 *568:17 0.00206327
7 *546:15 *580:15 2.14879e-05
8 *546:15 *580:19 0.000118046
9 *546:17 *649:wbs_dat_i[13] 0.000350109
10 *546:17 *547:19 0.0222864
11 *546:17 *580:19 0.0104295
12 *546:17 *594:9 0.0088048
13 *545:9 *546:15 0.00121862
14 *545:9 *546:17 0.000263191
*RES
1 wbs_adr_i[12] *546:15 22.5136 
2 *546:15 *546:17 49.8451 
3 *546:17 *649:wbs_adr_i[12] 3.41 
*END

*D_NET *547 0.0890444
*CONN
*P wbs_adr_i[13] I
*I *649:wbs_adr_i[13] I *D vco_adc_wrapper
*CAP
1 wbs_adr_i[13] 0.00100426
2 *649:wbs_adr_i[13] 0.000251633
3 *547:29 0.00382272
4 *547:19 0.00677885
5 *547:15 0.00421202
6 *547:15 wbs_dat_o[9] 0.000753547
7 *547:15 *580:15 4.65805e-05
8 *547:19 *548:9 0.00189037
9 *547:29 wbs_dat_o[21] 0.000179588
10 *547:29 *649:wbs_dat_i[9] 0.00027265
11 *547:29 *561:7 0.000259215
12 *547:29 *612:11 0.0128431
13 *547:29 *615:11 0.00736736
14 *547:29 *622:11 0.00208101
15 *547:29 *623:11 0.00231508
16 *544:15 *547:15 0.000399915
17 *545:9 *547:19 0.02228
18 *546:17 *547:19 0.0222864
*RES
1 wbs_adr_i[13] *547:15 25.5819 
2 *547:15 *547:19 38.5535 
3 *547:19 *547:29 49.3996 
4 *547:29 *649:wbs_adr_i[13] 1.5 
*END

*D_NET *548 0.0749968
*CONN
*P wbs_adr_i[14] I
*I *649:wbs_adr_i[14] I *D vco_adc_wrapper
*CAP
1 wbs_adr_i[14] 0.000812193
2 *649:wbs_adr_i[14] 0.000193677
3 *548:9 0.00811814
4 *548:7 0.00873666
5 *548:9 wbs_dat_o[9] 0.00037954
6 *548:9 *549:9 0.0337226
7 *548:9 *586:9 0.00224952
8 *548:9 *599:9 0.00016185
9 *548:9 *625:19 0.0158667
10 *548:9 *631:19 0.00169531
11 *545:9 *548:9 0.00117022
12 *547:19 *548:9 0.00189037
*RES
1 wbs_adr_i[14] *548:7 17.7679 
2 *548:7 *548:9 334.446 
3 *548:9 *649:wbs_adr_i[14] 6.27679 
*END

*D_NET *549 0.0909283
*CONN
*P wbs_adr_i[15] I
*I *649:wbs_adr_i[15] I *D vco_adc_wrapper
*CAP
1 wbs_adr_i[15] 0.000602284
2 *649:wbs_adr_i[15] 0.000207888
3 *549:9 0.00507516
4 *549:7 0.00546956
5 *549:7 *649:wbs_sel_i[3] 0.000825399
6 *549:9 wbs_dat_o[9] 0.00184098
7 *549:9 *550:9 0
8 *549:9 *583:9 0.0347224
9 *549:9 *586:9 0.000330272
10 *549:9 *599:9 0.00014225
11 *549:9 *625:19 0.00178617
12 *549:9 *631:19 0.002279
13 *545:9 *549:9 0.00392435
14 *548:9 *549:9 0.0337226
*RES
1 wbs_adr_i[15] *549:7 17.4643 
2 *549:7 *549:9 349.643 
3 *549:9 *649:wbs_adr_i[15] 6.27679 
*END

*D_NET *550 0.0929016
*CONN
*P wbs_adr_i[16] I
*I *649:wbs_adr_i[16] I *D vco_adc_wrapper
*CAP
1 wbs_adr_i[16] 0.000609374
2 *649:wbs_adr_i[16] 0.000328544
3 *550:9 0.00606235
4 *550:7 0.00634318
5 *550:9 wbs_dat_o[15] 0.00011307
6 *550:9 *649:wbs_adr_i[6] 0.00041987
7 *550:9 *551:13 0.000114729
8 *550:9 *555:9 0.00656432
9 *550:9 *578:9 0
10 *550:9 *583:9 0
11 *550:9 *584:9 0.0364985
12 *550:9 *616:9 0.0356755
13 *544:15 *550:7 0.000172226
14 *549:9 *550:9 0
*RES
1 wbs_adr_i[16] *550:7 15.3393 
2 *550:7 *550:9 364.429 
3 *550:9 *649:wbs_adr_i[16] 7.49107 
*END

*D_NET *551 0.113133
*CONN
*P wbs_adr_i[17] I
*I *649:wbs_adr_i[17] I *D vco_adc_wrapper
*CAP
1 wbs_adr_i[17] 0.00127279
2 *649:wbs_adr_i[17] 0.000103801
3 *551:13 0.0061105
4 *551:11 0.00727949
5 *551:11 wbs_dat_o[15] 0.00228282
6 *551:11 wbs_dat_o[9] 0.000923091
7 *551:11 *649:wbs_adr_i[6] 0.00040904
8 *551:11 *552:11 0.00162387
9 *551:11 *634:9 0.000794877
10 *551:13 *649:wbs_adr_i[6] 0.000693011
11 *551:13 *649:wbs_adr_i[7] 0.000291284
12 *551:13 *552:11 3.01853e-05
13 *551:13 *552:13 0.0388372
14 *551:13 *555:9 0.0378969
15 *551:13 *584:9 0.000121926
16 *551:13 *616:9 0.00701105
17 *551:13 *618:9 0.00733661
18 *550:9 *551:13 0.000114729
*RES
1 wbs_adr_i[17] *551:11 20.5056 
2 *551:11 *551:13 61.5919 
3 *551:13 *649:wbs_adr_i[17] 4.68679 
*END

*D_NET *552 0.117345
*CONN
*P wbs_adr_i[18] I
*I *649:wbs_adr_i[18] I *D vco_adc_wrapper
*CAP
1 wbs_adr_i[18] 0.00121761
2 *649:wbs_adr_i[18] 5.51251e-05
3 *552:13 0.00706668
4 *552:11 0.00822917
5 *552:11 wbs_dat_o[9] 0.00169087
6 *552:11 *583:9 0.000377552
7 *552:11 *616:9 0.000130158
8 *552:13 wbs_dat_o[9] 0.000131169
9 *552:13 *555:9 0.00204171
10 *552:13 *586:9 0.0415894
11 *552:13 *588:9 0.00681317
12 *552:13 *590:9 0.00666596
13 *552:13 *616:9 0.000254035
14 *552:13 *618:9 0.000464839
15 *545:9 *552:13 0.000126702
16 *551:11 *552:11 0.00162387
17 *551:13 *552:11 3.01853e-05
18 *551:13 *552:13 0.0388372
*RES
1 wbs_adr_i[18] *552:11 18.4463 
2 *552:11 *552:13 66.8528 
3 *552:13 *649:wbs_adr_i[18] 4.07964 
*END

*D_NET *553 0.10294
*CONN
*P wbs_adr_i[19] I
*I *649:wbs_adr_i[19] I *D vco_adc_wrapper
*CAP
1 wbs_adr_i[19] 0.000541036
2 *649:wbs_adr_i[19] 0.000304406
3 *553:9 0.00642728
4 *553:7 0.00666391
5 *553:7 *635:9 0.000231618
6 *553:7 *639:15 0
7 *553:9 *555:9 0.000576474
8 *553:9 *556:9 0.0401673
9 *553:9 *557:9 0.00811915
10 *553:9 *578:9 0
11 *553:9 *584:9 0.038181
12 *553:9 *616:9 0.000462034
13 *553:9 *618:9 0.0012659
*RES
1 wbs_adr_i[19] *553:7 14.7321 
2 *553:7 *553:9 409.607 
3 *553:9 *649:wbs_adr_i[19] 8.09821 
*END

*D_NET *554 0.0286331
*CONN
*P wbs_adr_i[1] I
*I *649:wbs_adr_i[1] I *D vco_adc_wrapper
*CAP
1 wbs_adr_i[1] 0.00419108
2 *649:wbs_adr_i[1] 0.00419108
3 *649:wbs_adr_i[1] *649:wbs_adr_i[2] 0.00241177
4 *649:wbs_adr_i[1] *649:wbs_we_i 0.00835405
5 *649:wbs_adr_i[1] *568:17 0
6 *649:wbs_adr_i[0] *649:wbs_adr_i[1] 0.0094851
*RES
1 wbs_adr_i[1] *649:wbs_adr_i[1] 41.84 
*END

*D_NET *555 0.120125
*CONN
*P wbs_adr_i[20] I
*I *649:wbs_adr_i[20] I *D vco_adc_wrapper
*CAP
1 wbs_adr_i[20] 0.000660418
2 *649:wbs_adr_i[20] 0.00026295
3 *555:9 0.0068326
4 *555:7 0.00723007
5 *555:7 *649:wbs_dat_i[6] 0
6 *555:9 *649:wbs_adr_i[7] 0.00156911
7 *555:9 *556:9 0.000365799
8 *555:9 *557:9 0.044681
9 *555:9 *573:11 0.00033165
10 *555:9 *584:9 0.00703937
11 *555:9 *586:9 0.00179909
12 *555:9 *588:9 0.000430317
13 *555:9 *590:9 0.000239224
14 *555:9 *618:9 0.000971175
15 *555:9 *631:19 0.00063276
16 *550:9 *555:9 0.00656432
17 *551:13 *555:9 0.0378969
18 *552:13 *555:9 0.00204171
19 *553:9 *555:9 0.000576474
*RES
1 wbs_adr_i[20] *555:7 13.7939 
2 *555:7 *555:9 74.4919 
3 *555:9 *649:wbs_adr_i[20] 6.85643 
*END

*D_NET *556 0.111123
*CONN
*P wbs_adr_i[21] I
*I *649:wbs_adr_i[21] I *D vco_adc_wrapper
*CAP
1 wbs_adr_i[21] 0.000627886
2 *649:wbs_adr_i[21] 0.000259889
3 *556:9 0.0069577
4 *556:7 0.0073257
5 *556:7 *636:9 0
6 *556:9 *557:9 0.00893363
7 *556:9 *578:9 0
8 *556:9 *588:9 0
9 *556:9 *589:9 0.0462072
10 *556:9 *590:9 0
11 *556:9 *618:9 0.000278116
12 *553:9 *556:9 0.0401673
13 *555:9 *556:9 0.000365799
*RES
1 wbs_adr_i[21] *556:7 14.4286 
2 *556:7 *556:9 439.179 
3 *556:9 *649:wbs_adr_i[21] 8.40179 
*END

*D_NET *557 0.129929
*CONN
*P wbs_adr_i[22] I
*I *649:wbs_adr_i[22] I *D vco_adc_wrapper
*CAP
1 wbs_adr_i[22] 0.000622267
2 *649:wbs_adr_i[22] 0.000265087
3 *557:9 0.00731559
4 *557:7 0.00767277
5 *557:7 *649:wbs_dat_i[7] 0
6 *557:9 *558:9 0.000365799
7 *557:9 *559:9 0.0480826
8 *557:9 *573:11 0.00151075
9 *557:9 *574:11 0.00036788
10 *557:9 *589:9 0.000576474
11 *557:9 *631:19 0.00141606
12 *553:9 *557:9 0.00811915
13 *555:9 *557:9 0.044681
14 *556:9 *557:9 0.00893363
*RES
1 wbs_adr_i[22] *557:7 13.1868 
2 *557:7 *557:9 79.7527 
3 *557:9 *649:wbs_adr_i[22] 7.46357 
*END

*D_NET *558 0.119577
*CONN
*P wbs_adr_i[23] I
*I *649:wbs_adr_i[23] I *D vco_adc_wrapper
*CAP
1 wbs_adr_i[23] 0.000586379
2 *649:wbs_adr_i[23] 0.000256676
3 *558:9 0.007177
4 *558:7 0.0075067
5 *558:7 *637:9 0
6 *558:9 *559:9 0.00969701
7 *558:9 *578:9 6.54545e-05
8 *558:9 *589:9 0.0445541
9 *558:9 *590:9 0
10 *558:9 *591:9 0.0493676
11 *558:9 *592:9 0
12 *557:9 *558:9 0.000365799
*RES
1 wbs_adr_i[23] *558:7 13.8214 
2 *558:7 *558:9 469.161 
3 *558:9 *649:wbs_adr_i[23] 9.00893 
*END

*D_NET *559 0.138967
*CONN
*P wbs_adr_i[24] I
*I *649:wbs_adr_i[24] I *D vco_adc_wrapper
*CAP
1 wbs_adr_i[24] 0.000585101
2 *649:wbs_adr_i[24] 0.000277907
3 *559:9 0.00833473
4 *559:7 0.00864193
5 *559:7 *649:wbs_dat_i[8] 0
6 *559:9 *560:9 0.000264176
7 *559:9 *561:9 0.0515133
8 *559:9 *574:11 0.00146104
9 *559:9 *577:9 0.000399974
10 *559:9 *589:9 0.00922688
11 *559:9 *591:9 0.000482232
12 *559:9 *631:19 0
13 *557:9 *559:9 0.0480826
14 *558:9 *559:9 0.00969701
*RES
1 wbs_adr_i[24] *559:7 12.5796 
2 *559:7 *559:9 85.0136 
3 *559:9 *649:wbs_adr_i[24] 8.07071 
*END

*D_NET *560 0.126014
*CONN
*P wbs_adr_i[25] I
*I *649:wbs_adr_i[25] I *D vco_adc_wrapper
*CAP
1 wbs_adr_i[25] 0.000553323
2 *649:wbs_adr_i[25] 0.000269106
3 *560:9 0.0075995
4 *560:7 0.00788371
5 *560:7 *638:9 0
6 *560:9 *561:9 0.0105923
7 *560:9 *562:9 0.0497884
8 *560:9 *578:9 0.00130543
9 *560:9 *591:9 0.0477583
10 *560:9 *625:11 0
11 *559:9 *560:9 0.000264176
*RES
1 wbs_adr_i[25] *560:7 13.2143 
2 *560:7 *560:9 499.143 
3 *560:9 *649:wbs_adr_i[25] 9.61607 
*END

*D_NET *561 0.148187
*CONN
*P wbs_adr_i[26] I
*I *649:wbs_adr_i[26] I *D vco_adc_wrapper
*CAP
1 wbs_adr_i[26] 0.000436362
2 *649:wbs_adr_i[26] 0.000267587
3 *561:9 0.00811965
4 *561:7 0.00828843
5 *561:7 wbs_dat_o[21] 3.75381e-05
6 *561:9 *562:9 0.00034089
7 *561:9 *563:9 0.054944
8 *561:9 *577:9 0.00200681
9 *561:9 *591:9 0.0101923
10 *561:9 *625:11 0.000111857
11 *561:9 *631:17 0.00107678
12 *561:9 *631:19 0
13 *547:29 *561:7 0.000259215
14 *559:9 *561:9 0.0515133
15 *560:9 *561:9 0.0105923
*RES
1 wbs_adr_i[26] *561:7 11.9725 
2 *561:7 *561:9 90.2745 
3 *561:9 *649:wbs_adr_i[26] 8.67786 
*END

*D_NET *562 0.133863
*CONN
*P wbs_adr_i[27] I
*I *649:wbs_adr_i[27] I *D vco_adc_wrapper
*CAP
1 wbs_adr_i[27] 0.000547635
2 *649:wbs_adr_i[27] 0.000281588
3 *562:9 0.00813754
4 *562:7 0.00840358
5 *562:9 *563:9 0.0122857
6 *562:9 *566:9 0.0512869
7 *562:9 *578:9 0.00278081
8 *562:9 *582:9 1.02821e-05
9 *562:9 *625:11 0
10 *560:9 *562:9 0.0497884
11 *561:9 *562:9 0.00034089
*RES
1 wbs_adr_i[27] *562:7 12.9107 
2 *562:7 *562:9 529.125 
3 *562:9 *649:wbs_adr_i[27] 9.91964 
*END

*D_NET *563 0.160508
*CONN
*P wbs_adr_i[28] I
*I *649:wbs_adr_i[28] I *D vco_adc_wrapper
*CAP
1 wbs_adr_i[28] 0.000518567
2 *649:wbs_adr_i[28] 0.000311544
3 *563:9 0.00747194
4 *563:7 0.00767896
5 *563:7 *649:wbs_dat_i[10] 2.09e-05
6 *563:9 *564:9 0.0601565
7 *563:9 *566:9 0.0114028
8 *563:9 *577:9 0.000118634
9 *563:9 *578:9 0.000216736
10 *563:9 *582:9 0.000337101
11 *563:9 *585:9 0.000979203
12 *563:9 *631:17 0.00406531
13 *561:9 *563:9 0.054944
14 *562:9 *563:9 0.0122857
*RES
1 wbs_adr_i[28] *563:7 11.3654 
2 *563:7 *563:9 95.5353 
3 *563:9 *649:wbs_adr_i[28] 9.285 
*END

*D_NET *564 0.144273
*CONN
*P wbs_adr_i[29] I
*I *649:wbs_adr_i[29] I *D vco_adc_wrapper
*CAP
1 wbs_adr_i[29] 0.000478095
2 *649:wbs_adr_i[29] 0.000346823
3 *564:9 0.0107689
4 *564:7 0.0109002
5 *564:9 *566:9 0.000222187
6 *564:9 *567:9 0.0230472
7 *564:9 *578:9 0.000384378
8 *564:9 *582:9 0.00285988
9 *564:9 *585:9 0.0263581
10 *564:9 *628:11 0.00740379
11 *564:9 *631:17 0.00134693
12 *563:9 *564:9 0.0601565
*RES
1 wbs_adr_i[29] *564:7 10.7582 
2 *564:7 *564:9 98.1297 
3 *564:9 *649:wbs_adr_i[29] 9.89214 
*END

*D_NET *565 0.0346388
*CONN
*P wbs_adr_i[2] I
*I *649:wbs_adr_i[2] I *D vco_adc_wrapper
*CAP
1 wbs_adr_i[2] 0.00399258
2 *649:wbs_adr_i[2] 0.00399258
3 *649:wbs_adr_i[2] wbs_dat_o[9] 0.000843096
4 *649:wbs_adr_i[2] *649:wbs_sel_i[1] 0.0151395
5 *649:wbs_adr_i[2] *570:9 7.67012e-05
6 *649:wbs_adr_i[0] *649:wbs_adr_i[2] 0.00717164
7 *649:wbs_adr_i[1] *649:wbs_adr_i[2] 0.00241177
8 *544:15 *649:wbs_adr_i[2] 0.00101096
*RES
1 wbs_adr_i[2] *649:wbs_adr_i[2] 44.8266 
*END

*D_NET *566 0.143191
*CONN
*P wbs_adr_i[30] I
*I *649:wbs_adr_i[30] I *D vco_adc_wrapper
*CAP
1 wbs_adr_i[30] 0.000526363
2 *649:wbs_adr_i[30] 0.000296454
3 *566:9 0.00923138
4 *566:7 0.00946129
5 *566:7 wbs_dat_o[26] 0
6 *566:7 *649:wbs_dat_i[11] 3.10885e-05
7 *566:9 *567:9 0.0594681
8 *566:9 *582:9 0.000910258
9 *566:9 *631:17 0.000354099
10 *562:9 *566:9 0.0512869
11 *563:9 *566:9 0.0114028
12 *564:9 *566:9 0.000222187
*RES
1 wbs_adr_i[30] *566:7 12.6071 
2 *566:7 *566:9 573.893 
3 *566:9 *649:wbs_adr_i[30] 10.2232 
*END

*D_NET *567 0.130676
*CONN
*P wbs_adr_i[31] I
*I *649:wbs_adr_i[31] I *D vco_adc_wrapper
*CAP
1 wbs_adr_i[31] 0.000522024
2 *649:wbs_adr_i[31] 0.000305826
3 *567:9 0.0178465
4 *567:7 0.0180627
5 *567:9 *582:9 0.0114236
6 *564:9 *567:9 0.0230472
7 *566:9 *567:9 0.0594681
*RES
1 wbs_adr_i[31] *567:7 12.3036 
2 *567:7 *567:9 589.089 
3 *567:9 *649:wbs_adr_i[31] 10.5268 
*END

*D_NET *568 0.0233159
*CONN
*P wbs_adr_i[3] I
*I *649:wbs_adr_i[3] I *D vco_adc_wrapper
*CAP
1 wbs_adr_i[3] 0.00919955
2 *649:wbs_adr_i[3] 0
3 *568:17 0.00919955
4 *568:17 wbs_dat_o[9] 0.000534
5 *568:17 *649:wbs_we_i 0.00139569
6 wbs_ack_o *568:17 0.000329461
7 *649:wbs_adr_i[1] *568:17 0
8 *545:9 *568:17 0.000594416
9 *546:15 *568:17 0.00206327
*RES
1 wbs_adr_i[3] *568:17 47.9626 
2 *568:17 *649:wbs_adr_i[3] 3.41 
*END

*D_NET *569 0.030081
*CONN
*P wbs_adr_i[4] I
*I *649:wbs_adr_i[4] I *D vco_adc_wrapper
*CAP
1 wbs_adr_i[4] 0.00778668
2 *649:wbs_adr_i[4] 0.000373986
3 *569:11 0.00816066
4 *649:wbs_adr_i[4] wbs_dat_o[15] 0.000404065
5 *569:11 wbs_dat_o[0] 0
6 *569:11 wbs_dat_o[2] 0
7 *569:11 *649:wbs_adr_i[6] 0.000372606
8 *569:11 *649:wbs_adr_i[7] 0.000470993
9 *569:11 *649:wbs_sel_i[1] 0
10 *569:11 *649:wbs_stb_i 0.0002778
11 *569:11 *570:9 0
12 *569:11 *573:11 0.000698213
13 *569:11 *574:11 0.00136944
14 *569:11 *577:9 0.00963008
15 *569:11 *579:9 0.000414604
16 *569:11 *581:9 0.000121926
17 *569:11 *601:13 0
18 *569:11 *602:13 0
19 *569:11 *633:13 0
*RES
1 wbs_adr_i[4] *569:11 46.0381 
2 *569:11 *649:wbs_adr_i[4] 7.08929 
*END

*D_NET *570 0.0513173
*CONN
*P wbs_adr_i[5] I
*I *649:wbs_adr_i[5] I *D vco_adc_wrapper
*CAP
1 wbs_adr_i[5] 0.00367711
2 *649:wbs_adr_i[5] 0.000234259
3 *570:9 0.00391137
4 *649:wbs_adr_i[5] wbs_dat_o[17] 2.70189e-05
5 *570:9 wbs_dat_o[15] 0.00293119
6 *570:9 *649:wbs_adr_i[6] 0.020881
7 *570:9 *649:wbs_sel_i[1] 0.00886583
8 *649:wbs_adr_i[2] *570:9 7.67012e-05
9 *544:15 *570:9 0.0107129
10 *569:11 *570:9 0
*RES
1 wbs_adr_i[5] *570:9 48.8653 
2 *570:9 *649:wbs_adr_i[5] 6.85643 
*END

*D_NET *571 0.0549783
*CONN
*P wbs_adr_i[6] I
*I *649:wbs_adr_i[6] I *D vco_adc_wrapper
*CAP
1 wbs_adr_i[6] 0.000413142
2 *649:wbs_adr_i[6] 0.00378875
3 *571:7 0.00420189
4 *649:wbs_adr_i[6] wbs_dat_o[15] 0.000694413
5 *649:wbs_adr_i[6] wbs_dat_o[19] 0
6 *649:wbs_adr_i[6] *649:wbs_adr_i[7] 0.0225451
7 *649:wbs_adr_i[6] *584:9 0.000154378
8 *649:wbs_adr_i[6] *586:7 0
9 *571:7 *649:wbs_dat_i[0] 0.000405186
10 *550:9 *649:wbs_adr_i[6] 0.00041987
11 *551:11 *649:wbs_adr_i[6] 0.00040904
12 *551:13 *649:wbs_adr_i[6] 0.000693011
13 *569:11 *649:wbs_adr_i[6] 0.000372606
14 *570:9 *649:wbs_adr_i[6] 0.020881
*RES
1 wbs_adr_i[6] *571:7 13.1868 
2 *571:7 *649:wbs_adr_i[6] 45.2014 
*END

*D_NET *572 0.0580035
*CONN
*P wbs_adr_i[7] I
*I *649:wbs_adr_i[7] I *D vco_adc_wrapper
*CAP
1 wbs_adr_i[7] 0.000522455
2 *649:wbs_adr_i[7] 0.00389696
3 *572:7 0.00441942
4 *649:wbs_adr_i[7] *573:11 0.0242882
5 *649:wbs_adr_i[7] *589:7 0
6 *572:7 *649:wbs_sel_i[0] 0
7 *649:wbs_adr_i[6] *649:wbs_adr_i[7] 0.0225451
8 *551:13 *649:wbs_adr_i[7] 0.000291284
9 *555:9 *649:wbs_adr_i[7] 0.00156911
10 *569:11 *649:wbs_adr_i[7] 0.000470993
*RES
1 wbs_adr_i[7] *572:7 12.5796 
2 *572:7 *649:wbs_adr_i[7] 48.403 
*END

*D_NET *573 0.0641982
*CONN
*P wbs_adr_i[8] I
*I *649:wbs_adr_i[8] I *D vco_adc_wrapper
*CAP
1 wbs_adr_i[8] 0.00050488
2 *649:wbs_adr_i[8] 0.000471107
3 *573:11 0.00421771
4 *573:7 0.00425148
5 *649:wbs_adr_i[8] *591:7 0
6 *573:11 *574:11 0.0259557
7 *573:11 *578:9 0.00182369
8 *573:11 *589:9 0.000144856
9 *649:wbs_adr_i[7] *573:11 0.0242882
10 *555:9 *573:11 0.00033165
11 *557:9 *573:11 0.00151075
12 *569:11 *573:11 0.000698213
*RES
1 wbs_adr_i[8] *573:7 11.9725 
2 *573:7 *573:11 46.4087 
3 *573:11 *649:wbs_adr_i[8] 5.26786 
*END

*D_NET *574 0.0659142
*CONN
*P wbs_adr_i[9] I
*I *649:wbs_adr_i[9] I *D vco_adc_wrapper
*CAP
1 wbs_adr_i[9] 0.000481295
2 *649:wbs_adr_i[9] 0.000575396
3 *574:11 0.00428457
4 *574:7 0.00419047
5 *649:wbs_adr_i[9] wbs_dat_o[25] 0
6 *574:7 *619:9 0
7 *574:11 *577:9 0.0270674
8 *574:11 *591:9 0.000160953
9 *557:9 *574:11 0.00036788
10 *559:9 *574:11 0.00146104
11 *569:11 *574:11 0.00136944
12 *573:11 *574:11 0.0259557
*RES
1 wbs_adr_i[9] *574:7 11.3654 
2 *574:7 *574:11 49.0031 
3 *574:11 *649:wbs_adr_i[9] 5.875 
*END

*D_NET *575 0.0242265
*CONN
*P wbs_cyc_i I
*I *649:wbs_cyc_i I *D vco_adc_wrapper
*CAP
1 wbs_cyc_i 0.00223955
2 *649:wbs_cyc_i 0.00223955
3 *649:wbs_cyc_i wbs_dat_o[2] 0.000168615
4 *649:wbs_cyc_i wbs_dat_o[3] 2.69575e-05
5 *649:wbs_cyc_i *649:wbs_stb_i 0.00959478
6 *649:wbs_cyc_i *601:13 0.000349165
7 *649:wbs_cyc_i *633:13 0.000121515
8 wbs_ack_o *649:wbs_cyc_i 0.00918459
9 *649:wb_rst_i *649:wbs_cyc_i 0.000301741
*RES
1 wbs_cyc_i *649:wbs_cyc_i 36.8932 
*END

*D_NET *576 0.0311773
*CONN
*P wbs_dat_i[0] I
*I *649:wbs_dat_i[0] I *D vco_adc_wrapper
*CAP
1 wbs_dat_i[0] 0.00369479
2 *649:wbs_dat_i[0] 0.00369479
3 *649:wbs_dat_i[0] *649:wbs_stb_i 0.00891993
4 *649:wbs_dat_i[0] *587:11 0.00199789
5 *649:wbs_dat_i[0] *598:11 0.00304516
6 *649:wbs_dat_i[0] *602:13 0.00087113
7 *649:wbs_dat_i[0] *603:11 0.00120022
8 *649:wbs_dat_i[0] *619:11 0.00141199
9 *649:wbs_dat_i[0] *633:13 0.000278026
10 *649:wbs_dat_i[0] *640:11 0.000345496
11 *649:wb_rst_i *649:wbs_dat_i[0] 0.00531265
12 *571:7 *649:wbs_dat_i[0] 0.000405186
*RES
1 wbs_dat_i[0] *649:wbs_dat_i[0] 41.973 
*END

*D_NET *577 0.077331
*CONN
*P wbs_dat_i[10] I
*I *649:wbs_dat_i[10] I *D vco_adc_wrapper
*CAP
1 wbs_dat_i[10] 0.000451601
2 *649:wbs_dat_i[10] 0.000499282
3 *577:9 0.00565578
4 *577:7 0.0056081
5 *577:9 *578:9 0.000643693
6 *577:9 *579:9 0.00138183
7 *577:9 *581:9 0.000876307
8 *577:9 *582:9 0.00313781
9 *577:9 *585:9 0.0174208
10 *649:wbs_adr_i[10] *577:9 0.002412
11 *559:9 *577:9 0.000399974
12 *561:9 *577:9 0.00200681
13 *563:7 *649:wbs_dat_i[10] 2.09e-05
14 *563:9 *577:9 0.000118634
15 *569:11 *577:9 0.00963008
16 *574:11 *577:9 0.0270674
*RES
1 wbs_dat_i[10] *577:7 10.7582 
2 *577:7 *577:9 49.2685 
3 *577:9 *649:wbs_dat_i[10] 9.07071 
*END

*D_NET *578 0.0556913
*CONN
*P wbs_dat_i[11] I
*I *649:wbs_dat_i[11] I *D vco_adc_wrapper
*CAP
1 wbs_dat_i[11] 0.000482099
2 *649:wbs_dat_i[11] 0.00046198
3 *578:9 0.00928136
4 *578:7 0.00930148
5 *578:7 *649:wbs_dat_i[2] 0
6 *578:9 *579:9 0.00132286
7 *578:9 *581:9 0.000910248
8 *578:9 *582:9 0.0246172
9 *578:9 *584:9 0
10 *578:9 *585:9 0.00123933
11 *578:9 *589:9 0
12 *578:9 *591:9 0.000823405
13 *550:9 *578:9 0
14 *553:9 *578:9 0
15 *556:9 *578:9 0
16 *558:9 *578:9 6.54545e-05
17 *560:9 *578:9 0.00130543
18 *562:9 *578:9 0.00278081
19 *563:9 *578:9 0.000216736
20 *564:9 *578:9 0.000384378
21 *566:7 *649:wbs_dat_i[11] 3.10885e-05
22 *573:11 *578:9 0.00182369
23 *577:9 *578:9 0.000643693
*RES
1 wbs_dat_i[11] *578:7 12.3036 
2 *578:7 *578:9 295.429 
3 *578:9 *649:wbs_dat_i[11] 9.70536 
*END

*D_NET *579 0.0594749
*CONN
*P wbs_dat_i[12] I
*I *649:wbs_dat_i[12] I *D vco_adc_wrapper
*CAP
1 wbs_dat_i[12] 0.000419356
2 *649:wbs_dat_i[12] 0.000551148
3 *579:9 0.0112515
4 *579:7 0.0111197
5 *579:7 *649:wbs_sel_i[2] 0
6 *579:9 *581:9 0.0295367
7 *579:9 *585:9 0.00347712
8 *579:9 *611:19 0
9 *579:9 *613:11 0
10 *579:9 *613:17 0
11 *579:9 *613:19 0
12 *579:9 *621:11 0
13 *579:9 *626:11 0
14 *569:11 *579:9 0.000414604
15 *577:9 *579:9 0.00138183
16 *578:9 *579:9 0.00132286
*RES
1 wbs_dat_i[12] *579:7 11.3929 
2 *579:7 *579:9 310.625 
3 *579:9 *649:wbs_dat_i[12] 10.6161 
*END

*D_NET *580 0.0475455
*CONN
*P wbs_dat_i[13] I
*I *649:wbs_dat_i[13] I *D vco_adc_wrapper
*CAP
1 wbs_dat_i[13] 0.00116464
2 *649:wbs_dat_i[13] 0.00118091
3 *580:19 0.0129966
4 *580:15 0.0129803
5 *649:wbs_dat_i[13] *594:9 0.00244726
6 *649:wbs_dat_i[13] *628:31 0.00164094
7 *580:19 *628:31 0.0041443
8 *545:9 *580:15 2.4775e-05
9 *546:15 *580:15 2.14879e-05
10 *546:15 *580:19 0.000118046
11 *546:17 *649:wbs_dat_i[13] 0.000350109
12 *546:17 *580:19 0.0104295
13 *547:15 *580:15 4.65805e-05
*RES
1 wbs_dat_i[13] *580:15 25.3136 
2 *580:15 *580:19 49.7448 
3 *580:19 *649:wbs_dat_i[13] 11.1681 
*END

*D_NET *581 0.0848912
*CONN
*P wbs_dat_i[14] I
*I *649:wbs_dat_i[14] I *D vco_adc_wrapper
*CAP
1 wbs_dat_i[14] 0.000359177
2 *649:wbs_dat_i[14] 0.000518745
3 *581:9 0.0063355
4 *581:7 0.00617593
5 *581:7 *633:13 0.00017455
6 *581:9 *582:9 0.0344459
7 *581:9 *585:9 0.00543626
8 *581:9 *626:11 0
9 *569:11 *581:9 0.000121926
10 *577:9 *581:9 0.000876307
11 *578:9 *581:9 0.000910248
12 *579:9 *581:9 0.0295367
*RES
1 wbs_dat_i[14] *581:7 11.6964 
2 *581:7 *581:9 340.196 
3 *581:9 *649:wbs_dat_i[14] 10.3125 
*END

*D_NET *582 0.0903344
*CONN
*P wbs_dat_i[15] I
*I *649:wbs_dat_i[15] I *D vco_adc_wrapper
*CAP
1 wbs_dat_i[15] 0.000454529
2 *649:wbs_dat_i[15] 0.00048651
3 *582:9 0.00584166
4 *582:7 0.00580967
5 *582:9 *626:11 0
6 *562:9 *582:9 1.02821e-05
7 *563:9 *582:9 0.000337101
8 *564:9 *582:9 0.00285988
9 *566:9 *582:9 0.000910258
10 *567:9 *582:9 0.0114236
11 *577:9 *582:9 0.00313781
12 *578:9 *582:9 0.0246172
13 *581:9 *582:9 0.0344459
*RES
1 wbs_dat_i[15] *582:7 12 
2 *582:7 *582:9 355.393 
3 *582:9 *649:wbs_dat_i[15] 10.0089 
*END

*D_NET *583 0.0888466
*CONN
*P wbs_dat_i[16] I
*I *649:wbs_dat_i[16] I *D vco_adc_wrapper
*CAP
1 wbs_dat_i[16] 0.000620901
2 *649:wbs_dat_i[16] 9.07311e-05
3 *583:9 0.00621365
4 *583:7 0.00674382
5 *583:7 *649:wbs_dat_i[4] 0.000456008
6 *583:9 wbs_dat_o[13] 0.000160829
7 *583:9 wbs_dat_o[9] 0.000446216
8 *583:9 *586:9 0.00792467
9 *583:9 *588:9 0.00123134
10 *583:9 *590:9 0.00182064
11 *583:9 *592:9 0.0257708
12 *583:9 *616:9 0.000322964
13 *583:9 *618:9 0.00029625
14 *583:9 *625:19 0.00164788
15 *549:9 *583:9 0.0347224
16 *550:9 *583:9 0
17 *552:11 *583:9 0.000377552
*RES
1 wbs_dat_i[16] *583:7 17.1607 
2 *583:7 *583:9 370.179 
3 *583:9 *649:wbs_dat_i[16] 5.45536 
*END

*D_NET *584 0.097581
*CONN
*P wbs_dat_i[17] I
*I *649:wbs_dat_i[17] I *D vco_adc_wrapper
*CAP
1 wbs_dat_i[17] 0.000664087
2 *649:wbs_dat_i[17] 0.000205558
3 *584:9 0.00577477
4 *584:7 0.0062333
5 *584:9 wbs_dat_o[15] 0.000223526
6 *584:9 *616:9 0.00248454
7 *649:wbs_adr_i[6] *584:9 0.000154378
8 *550:9 *584:9 0.0364985
9 *551:13 *584:9 0.000121926
10 *553:9 *584:9 0.038181
11 *555:9 *584:9 0.00703937
12 *578:9 *584:9 0
*RES
1 wbs_dat_i[17] *584:7 15.0357 
2 *584:7 *584:9 385.375 
3 *584:9 *649:wbs_dat_i[17] 6.97321 
*END

*D_NET *585 0.0980149
*CONN
*P wbs_dat_i[18] I
*I *649:wbs_dat_i[18] I *D vco_adc_wrapper
*CAP
1 wbs_dat_i[18] 0.000359717
2 *649:wbs_dat_i[18] 0.000473333
3 *585:9 0.00940576
4 *585:7 0.00929214
5 *585:7 wbs_dat_o[15] 0.000132957
6 *585:7 *649:wbs_dat_i[5] 0
7 *585:9 *614:11 0.00279372
8 *585:9 *628:11 0.00444862
9 *649:wbs_adr_i[10] *585:9 0.0161978
10 *563:9 *585:9 0.000979203
11 *564:9 *585:9 0.0263581
12 *577:9 *585:9 0.0174208
13 *578:9 *585:9 0.00123933
14 *579:9 *585:9 0.00347712
15 *581:9 *585:9 0.00543626
*RES
1 wbs_dat_i[18] *585:7 10.1511 
2 *585:7 *585:9 70.2399 
3 *585:9 *649:wbs_dat_i[18] 9.67786 
*END

*D_NET *586 0.119986
*CONN
*P wbs_dat_i[19] I
*I *649:wbs_dat_i[19] I *D vco_adc_wrapper
*CAP
1 wbs_dat_i[19] 0.000788854
2 *649:wbs_dat_i[19] 0
3 *586:9 0.00941274
4 *586:7 0.0102016
5 *586:7 *639:15 0
6 *586:9 *588:9 0.00075528
7 *586:9 *590:9 0.000700423
8 *586:9 *592:9 0.00757061
9 *586:9 *594:9 0.000545411
10 *586:9 *599:9 0.000428714
11 *586:9 *618:9 0.000112714
12 *586:9 *628:31 0.00032085
13 *586:9 *631:19 0.0260439
14 *649:wbs_adr_i[6] *586:7 0
15 *545:9 *586:9 0.00921241
16 *548:9 *586:9 0.00224952
17 *549:9 *586:9 0.000330272
18 *552:13 *586:9 0.0415894
19 *555:9 *586:9 0.00179909
20 *583:9 *586:9 0.00792467
*RES
1 wbs_dat_i[19] *586:7 15.6154 
2 *586:7 *586:9 73.0145 
3 *586:9 *649:wbs_dat_i[19] 3.41 
*END

*D_NET *587 0.0339055
*CONN
*P wbs_dat_i[1] I
*I *649:wbs_dat_i[1] I *D vco_adc_wrapper
*CAP
1 wbs_dat_i[1] 7.78695e-05
2 *649:wbs_dat_i[1] 0.000796176
3 *587:11 0.00255632
4 *587:9 0.00183801
5 *649:wbs_dat_i[1] wbs_dat_o[8] 2.06112e-05
6 *587:11 *603:11 0.000123715
7 *587:11 *604:11 0.000645333
8 *587:11 *605:11 0.000119297
9 *587:11 *606:11 0.000126629
10 *587:11 *619:11 0.0134527
11 *587:11 *635:11 2.5428e-05
12 *587:11 *637:11 0.000557927
13 *587:11 *640:11 0.0115676
14 *649:wbs_dat_i[0] *587:11 0.00199789
*RES
1 wbs_dat_i[1] *587:9 5.66071 
2 *587:9 *587:11 129.911 
3 *587:11 *649:wbs_dat_i[1] 17.9018 
*END

*D_NET *588 0.109156
*CONN
*P wbs_dat_i[20] I
*I *649:wbs_dat_i[20] I *D vco_adc_wrapper
*CAP
1 wbs_dat_i[20] 0.00064693
2 *649:wbs_dat_i[20] 9.57452e-05
3 *588:9 0.00631159
4 *588:7 0.00686277
5 *588:7 *649:wbs_dat_i[6] 0.00027227
6 *588:9 *590:9 0.042063
7 *588:9 *618:9 0.0433031
8 *588:9 *631:19 0.000370196
9 *552:13 *588:9 0.00681317
10 *555:9 *588:9 0.000430317
11 *556:9 *588:9 0
12 *583:9 *588:9 0.00123134
13 *586:9 *588:9 0.00075528
*RES
1 wbs_dat_i[20] *588:7 16.25 
2 *588:7 *588:9 430.143 
3 *588:9 *649:wbs_dat_i[20] 5.75893 
*END

*D_NET *589 0.114995
*CONN
*P wbs_dat_i[21] I
*I *649:wbs_dat_i[21] I *D vco_adc_wrapper
*CAP
1 wbs_dat_i[21] 0.000615307
2 *649:wbs_dat_i[21] 0.000204703
3 *589:9 0.00652746
4 *589:7 0.00693807
5 *589:9 *590:9 0
6 *649:wbs_adr_i[7] *589:7 0
7 *556:9 *589:9 0.0462072
8 *557:9 *589:9 0.000576474
9 *558:9 *589:9 0.0445541
10 *559:9 *589:9 0.00922688
11 *573:11 *589:9 0.000144856
12 *578:9 *589:9 0
*RES
1 wbs_dat_i[21] *589:7 14.125 
2 *589:7 *589:9 445.339 
3 *589:9 *649:wbs_dat_i[21] 7.88393 
*END

*D_NET *590 0.114966
*CONN
*P wbs_dat_i[22] I
*I *649:wbs_dat_i[22] I *D vco_adc_wrapper
*CAP
1 wbs_dat_i[22] 0.000803525
2 *649:wbs_dat_i[22] 6.59176e-05
3 *590:9 0.00744012
4 *590:7 0.00817773
5 *590:7 *649:wbs_dat_i[7] 0
6 *590:9 *592:9 0.0452303
7 *590:9 *631:19 0.00175898
8 *552:13 *590:9 0.00666596
9 *555:9 *590:9 0.000239224
10 *556:9 *590:9 0
11 *558:9 *590:9 0
12 *583:9 *590:9 0.00182064
13 *586:9 *590:9 0.000700423
14 *588:9 *590:9 0.042063
15 *589:9 *590:9 0
*RES
1 wbs_dat_i[22] *590:7 16.5536 
2 *590:7 *590:9 460.125 
3 *590:9 *649:wbs_dat_i[22] 5.45536 
*END

*D_NET *591 0.122928
*CONN
*P wbs_dat_i[23] I
*I *649:wbs_dat_i[23] I *D vco_adc_wrapper
*CAP
1 wbs_dat_i[23] 0.000571696
2 *649:wbs_dat_i[23] 0.000219005
3 *591:9 0.00649984
4 *591:7 0.00685254
5 *649:wbs_adr_i[8] *591:7 0
6 *558:9 *591:9 0.0493676
7 *559:9 *591:9 0.000482232
8 *560:9 *591:9 0.0477583
9 *561:9 *591:9 0.0101923
10 *574:11 *591:9 0.000160953
11 *578:9 *591:9 0.000823405
*RES
1 wbs_dat_i[23] *591:7 13.5179 
2 *591:7 *591:9 474.911 
3 *591:9 *649:wbs_dat_i[23] 8.49107 
*END

*D_NET *592 0.109302
*CONN
*P wbs_dat_i[24] I
*I *649:wbs_dat_i[24] I *D vco_adc_wrapper
*CAP
1 wbs_dat_i[24] 0.000842947
2 *649:wbs_dat_i[24] 5.52403e-05
3 *592:9 0.00927895
4 *592:7 0.0100667
5 *592:7 *649:wbs_dat_i[8] 0
6 *592:9 *625:11 0.0001638
7 *592:9 *625:19 0.00654541
8 *592:9 *631:19 0.00377702
9 *558:9 *592:9 0
10 *583:9 *592:9 0.0257708
11 *586:9 *592:9 0.00757061
12 *590:9 *592:9 0.0452303
*RES
1 wbs_dat_i[24] *592:7 16.8571 
2 *592:7 *592:9 490.107 
3 *592:9 *649:wbs_dat_i[24] 5.45536 
*END

*D_NET *593 0.122749
*CONN
*P wbs_dat_i[25] I
*I *649:wbs_dat_i[25] I *D vco_adc_wrapper
*CAP
1 wbs_dat_i[25] 0.00027878
2 *649:wbs_dat_i[25] 0.000672107
3 *593:11 0.0075278
4 *593:9 0.00713448
5 *593:11 *595:11 0.0505192
6 *593:11 *607:11 0.000313904
7 *593:11 *609:11 0.000237545
8 *593:11 *615:11 0.00477791
9 *593:11 *624:11 0.0512873
*RES
1 wbs_dat_i[25] *593:9 7.5 
2 *593:9 *593:11 502.839 
3 *593:11 *649:wbs_dat_i[25] 16.6875 
*END

*D_NET *594 0.104447
*CONN
*P wbs_dat_i[26] I
*I *649:wbs_dat_i[26] I *D vco_adc_wrapper
*CAP
1 wbs_dat_i[26] 0.000996649
2 *649:wbs_dat_i[26] 7.12624e-05
3 *594:9 0.0169442
4 *594:7 0.0178696
5 *594:7 *649:wbs_dat_i[9] 0
6 *594:9 *599:9 0.0507369
7 *594:9 *625:19 0.000362507
8 *594:9 *628:31 0.000295059
9 *649:wbs_dat_i[13] *594:9 0.00244726
10 *545:9 *594:9 0.00537333
11 *546:17 *594:9 0.0088048
12 *586:9 *594:9 0.000545411
*RES
1 wbs_dat_i[26] *594:7 17.4368 
2 *594:7 *594:9 91.1393 
3 *594:9 *649:wbs_dat_i[26] 4.91 
*END

*D_NET *595 0.130391
*CONN
*P wbs_dat_i[27] I
*I *649:wbs_dat_i[27] I *D vco_adc_wrapper
*CAP
1 wbs_dat_i[27] 0.000141648
2 *649:wbs_dat_i[27] 0.000673362
3 *595:11 0.00841961
4 *595:9 0.00788789
5 *595:11 *609:11 0.000233184
6 *595:11 *617:11 0.00625982
7 *595:11 *627:11 0.0562558
8 *593:11 *595:11 0.0505192
*RES
1 wbs_dat_i[27] *595:9 5.96429 
2 *595:9 *595:11 535.696 
3 *595:11 *649:wbs_dat_i[27] 16.9911 
*END

*D_NET *596 0.137645
*CONN
*P wbs_dat_i[28] I
*I *649:wbs_dat_i[28] I *D vco_adc_wrapper
*CAP
1 wbs_dat_i[28] 0.000166635
2 *649:wbs_dat_i[28] 0.000687598
3 *596:11 0.00773279
4 *596:9 0.00721183
5 *596:11 *597:11 0.0567701
6 *596:11 *609:11 0.000419811
7 *596:11 *610:11 0.00048288
8 *596:11 *620:11 0.00771308
9 *596:11 *627:11 0.0564605
*RES
1 wbs_dat_i[28] *596:9 5.66071 
2 *596:9 *596:11 550.893 
3 *596:11 *649:wbs_dat_i[28] 17.5982 
*END

*D_NET *597 0.139931
*CONN
*P wbs_dat_i[29] I
*I *649:wbs_dat_i[29] I *D vco_adc_wrapper
*CAP
1 wbs_dat_i[29] 0.000204204
2 *649:wbs_dat_i[29] 0.000667336
3 *597:11 0.0080018
4 *597:9 0.00753867
5 *597:11 *610:11 0.000171023
6 *597:11 *620:11 0.00673822
7 *597:11 *629:11 0.0598399
8 *596:11 *597:11 0.0567701
*RES
1 wbs_dat_i[29] *597:9 6.48214 
2 *597:9 *597:11 564.036 
3 *597:11 *649:wbs_dat_i[29] 17.6161 
*END

*D_NET *598 0.0336109
*CONN
*P wbs_dat_i[2] I
*I *649:wbs_dat_i[2] I *D vco_adc_wrapper
*CAP
1 wbs_dat_i[2] 0.000117797
2 *649:wbs_dat_i[2] 0.000903809
3 *598:11 0.00582941
4 *598:9 0.00504339
5 *598:11 wbs_dat_o[6] 0.00315051
6 *598:11 *604:11 0.000341939
7 *598:11 *607:11 0.00139261
8 *598:11 *609:11 0.000624791
9 *598:11 *619:11 0.0127955
10 *598:11 *638:11 6.44345e-05
11 *649:wb_rst_i *598:11 0.000301534
12 *649:wbs_dat_i[0] *598:11 0.00304516
13 *545:7 *649:wbs_dat_i[2] 0
14 *578:7 *649:wbs_dat_i[2] 0
*RES
1 wbs_dat_i[2] *598:9 5.66071 
2 *598:9 *598:11 150.857 
3 *598:11 *649:wbs_dat_i[2] 19.3304 
*END

*D_NET *599 0.146201
*CONN
*P wbs_dat_i[30] I
*I *649:wbs_dat_i[30] I *D vco_adc_wrapper
*CAP
1 wbs_dat_i[30] 0.000970257
2 *649:wbs_dat_i[30] 0.00408398
3 *599:9 0.0127946
4 *599:7 0.00968089
5 *649:wbs_dat_i[30] *631:17 0.0117957
6 *599:7 wbs_dat_o[26] 0
7 *599:7 *610:9 0
8 *599:9 *625:19 0.00868908
9 *599:9 *631:17 0.00046243
10 *599:9 *631:19 0.0462545
11 *548:9 *599:9 0.00016185
12 *549:9 *599:9 0.00014225
13 *586:9 *599:9 0.000428714
14 *594:9 *599:9 0.0507369
*RES
1 wbs_dat_i[30] *599:7 16.8296 
2 *599:7 *599:9 82.3111 
3 *599:9 *649:wbs_dat_i[30] 26.9634 
*END

*D_NET *600 0.125025
*CONN
*P wbs_dat_i[31] I
*I *649:wbs_dat_i[31] I *D vco_adc_wrapper
*CAP
1 wbs_dat_i[31] 0.000381629
2 *649:wbs_dat_i[31] 0.000700548
3 *600:17 0.0268329
4 *600:15 0.0265139
5 *600:17 *620:11 0.0301231
6 *600:17 *628:11 0
7 *600:17 *629:11 0.0135194
8 *600:17 *632:11 0.0269532
*RES
1 wbs_dat_i[31] *600:15 8.8475 
2 *600:15 *600:17 104.183 
3 *600:17 *649:wbs_dat_i[31] 17.5707 
*END

*D_NET *601 0.0455758
*CONN
*P wbs_dat_i[3] I
*I *649:wbs_dat_i[3] I *D vco_adc_wrapper
*CAP
1 wbs_dat_i[3] 0.0036398
2 *649:wbs_dat_i[3] 7.12624e-05
3 *601:13 0.00371107
4 *601:13 wbs_dat_o[13] 0.000420775
5 *601:13 wbs_dat_o[2] 0.0157853
6 *601:13 *633:13 0.0186584
7 *601:13 *642:9 0.00294006
8 wbs_ack_o *601:13 0
9 *649:wbs_cyc_i *601:13 0.000349165
10 *569:11 *601:13 0
*RES
1 wbs_dat_i[3] *601:13 48.9609 
2 *601:13 *649:wbs_dat_i[3] 1.5 
*END

*D_NET *602 0.0546591
*CONN
*P wbs_dat_i[4] I
*I *649:wbs_dat_i[4] I *D vco_adc_wrapper
*CAP
1 wbs_dat_i[4] 0.00372578
2 *649:wbs_dat_i[4] 0.000564299
3 *602:13 0.00429008
4 *602:13 wbs_dat_o[4] 0
5 *602:13 *603:11 0.0200406
6 *602:13 *605:11 0.00286453
7 *602:13 *633:13 0.017908
8 *602:13 *634:11 0.000111084
9 *602:13 *635:11 0.00360709
10 *602:13 *640:11 0.000220597
11 *649:wbs_adr_i[10] *602:13 0
12 *649:wbs_dat_i[0] *602:13 0.00087113
13 *569:11 *602:13 0
14 *583:7 *649:wbs_dat_i[4] 0.000456008
*RES
1 wbs_dat_i[4] *602:13 42.8659 
2 *602:13 *649:wbs_dat_i[4] 11.9286 
*END

*D_NET *603 0.062779
*CONN
*P wbs_dat_i[5] I
*I *649:wbs_dat_i[5] I *D vco_adc_wrapper
*CAP
1 wbs_dat_i[5] 0.00377078
2 *649:wbs_dat_i[5] 0.000907879
3 *603:11 0.00467866
4 *649:wbs_dat_i[5] wbs_dat_o[15] 0
5 *603:11 *604:11 0.0219513
6 *603:11 *606:11 0.00302468
7 *603:11 *615:11 0.00309115
8 *603:11 *619:11 0.000114324
9 *603:11 *637:11 0.00362737
10 *603:11 *640:11 0.000248307
11 *649:wbs_adr_i[10] *603:11 0
12 *649:wbs_dat_i[0] *603:11 0.00120022
13 *585:7 *649:wbs_dat_i[5] 0
14 *587:11 *603:11 0.000123715
15 *602:13 *603:11 0.0200406
*RES
1 wbs_dat_i[5] *603:11 44.2887 
2 *603:11 *649:wbs_dat_i[5] 13.7679 
*END

*D_NET *604 0.0679292
*CONN
*P wbs_dat_i[6] I
*I *649:wbs_dat_i[6] I *D vco_adc_wrapper
*CAP
1 wbs_dat_i[6] 0.00322739
2 *649:wbs_dat_i[6] 0.000818856
3 *604:11 0.00404624
4 *604:11 wbs_dat_o[6] 0.0244481
5 *604:11 *607:11 0.00396755
6 *604:11 *615:11 0.000172806
7 *604:11 *617:11 0.00298245
8 *604:11 *619:11 0.000158552
9 *604:11 *638:11 0.00453232
10 *604:11 *640:11 0.000364031
11 *555:7 *649:wbs_dat_i[6] 0
12 *587:11 *604:11 0.000645333
13 *588:7 *649:wbs_dat_i[6] 0.00027227
14 *598:11 *604:11 0.000341939
15 *603:11 *604:11 0.0219513
*RES
1 wbs_dat_i[6] *604:11 46.5949 
2 *604:11 *649:wbs_dat_i[6] 13.5536 
*END

*D_NET *605 0.0586738
*CONN
*P wbs_dat_i[7] I
*I *649:wbs_dat_i[7] I *D vco_adc_wrapper
*CAP
1 wbs_dat_i[7] 0.000148839
2 *649:wbs_dat_i[7] 0.000823389
3 *605:11 0.00501919
4 *605:9 0.00434464
5 *605:11 *611:11 0
6 *605:11 *615:11 0.00147612
7 *605:11 *635:11 0.0193672
8 *605:11 *637:11 0.0245106
9 *557:7 *649:wbs_dat_i[7] 0
10 *587:11 *605:11 0.000119297
11 *590:7 *649:wbs_dat_i[7] 0
12 *602:13 *605:11 0.00286453
*RES
1 wbs_dat_i[7] *605:9 6.26786 
2 *605:9 *605:11 234.643 
3 *605:11 *649:wbs_dat_i[7] 16.6875 
*END

*D_NET *606 0.0646866
*CONN
*P wbs_dat_i[8] I
*I *649:wbs_dat_i[8] I *D vco_adc_wrapper
*CAP
1 wbs_dat_i[8] 0.000305077
2 *649:wbs_dat_i[8] 0.000899222
3 *606:11 0.00430471
4 *606:9 0.00371057
5 *606:11 *617:11 0.00154368
6 *606:11 *619:11 1.21289e-05
7 *606:11 *622:11 0.000164975
8 *606:11 *623:11 0.000244391
9 *606:11 *637:11 0.0241104
10 *606:11 *638:11 0.0262402
11 *559:7 *649:wbs_dat_i[8] 0
12 *587:11 *606:11 0.000126629
13 *592:7 *649:wbs_dat_i[8] 0
14 *603:11 *606:11 0.00302468
*RES
1 wbs_dat_i[8] *606:9 6.89286 
2 *606:9 *606:11 248.607 
3 *606:11 *649:wbs_dat_i[8] 17.2946 
*END

*D_NET *607 0.0693184
*CONN
*P wbs_dat_i[9] I
*I *649:wbs_dat_i[9] I *D vco_adc_wrapper
*CAP
1 wbs_dat_i[9] 0.000127801
2 *649:wbs_dat_i[9] 0.000811359
3 *607:11 0.00427179
4 *607:9 0.00358823
5 *649:wbs_dat_i[9] wbs_dat_o[21] 0.000344608
6 *607:11 *609:11 0.0258926
7 *607:11 *617:11 0.000194851
8 *607:11 *620:11 0.00188482
9 *607:11 *624:11 0.000143974
10 *607:11 *638:11 0.0261117
11 *547:29 *649:wbs_dat_i[9] 0.00027265
12 *593:11 *607:11 0.000313904
13 *594:7 *649:wbs_dat_i[9] 0
14 *598:11 *607:11 0.00139261
15 *604:11 *607:11 0.00396755
*RES
1 wbs_dat_i[9] *607:9 5.66071 
2 *607:9 *607:11 266.268 
3 *607:11 *649:wbs_dat_i[9] 17.9018 
*END

*D_NET *608 0.0199003
*CONN
*P wbs_dat_o[0] O
*I *649:wbs_dat_o[0] O *D vco_adc_wrapper
*CAP
1 wbs_dat_o[0] 0.00485086
2 *649:wbs_dat_o[0] 0.00485086
3 wbs_dat_o[0] wbs_dat_o[2] 0.00839161
4 wbs_ack_o wbs_dat_o[0] 0.00180697
5 *569:11 wbs_dat_o[0] 0
*RES
1 *649:wbs_dat_o[0] wbs_dat_o[0] 40.1987 
*END

*D_NET *609 0.0740851
*CONN
*P wbs_dat_o[10] O
*I *649:wbs_dat_o[10] O *D vco_adc_wrapper
*CAP
1 wbs_dat_o[10] 0.000243993
2 *649:wbs_dat_o[10] 0.000799259
3 *609:11 0.00416454
4 *609:9 0.0047198
5 *609:9 wbs_dat_o[28] 0.000416
6 *609:11 wbs_dat_o[21] 0.00168515
7 *609:11 wbs_dat_o[26] 0.000821357
8 *609:11 wbs_dat_o[6] 0.00411922
9 *609:11 *610:11 0.0288706
10 *609:11 *620:11 0.000506039
11 *609:11 *627:11 0.000331269
12 *593:11 *609:11 0.000237545
13 *595:11 *609:11 0.000233184
14 *596:11 *609:11 0.000419811
15 *598:11 *609:11 0.000624791
16 *607:11 *609:11 0.0258926
*RES
1 *649:wbs_dat_o[10] *609:9 17.7946 
2 *609:9 *609:11 284.339 
3 *609:11 wbs_dat_o[10] 6.48214 
*END

*D_NET *610 0.0670599
*CONN
*P wbs_dat_o[11] O
*I *649:wbs_dat_o[11] O *D vco_adc_wrapper
*CAP
1 wbs_dat_o[11] 0.000134231
2 *649:wbs_dat_o[11] 0.00116161
3 *610:11 0.0098461
4 *610:9 0.0108735
5 *610:9 wbs_dat_o[30] 0.000128012
6 *610:11 wbs_dat_o[21] 0.00312552
7 *610:11 wbs_dat_o[26] 0.00221424
8 *610:11 wbs_dat_o[6] 0.00669114
9 *610:11 *620:11 0.00173152
10 *610:11 *629:11 0.00162954
11 *596:11 *610:11 0.00048288
12 *597:11 *610:11 0.000171023
13 *599:7 *610:9 0
14 *609:11 *610:11 0.0288706
*RES
1 *649:wbs_dat_o[11] *610:9 19.3304 
2 *610:9 *610:11 300.357 
3 *610:11 wbs_dat_o[11] 5.66071 
*END

*D_NET *611 0.0557902
*CONN
*P wbs_dat_o[12] O
*I *649:wbs_dat_o[12] O *D vco_adc_wrapper
*CAP
1 wbs_dat_o[12] 0.000302497
2 *649:wbs_dat_o[12] 0.000893697
3 *611:19 0.0031662
4 *611:17 0.00339767
5 *611:11 0.00895183
6 *611:9 0.00931156
7 wbs_dat_o[12] *649:wbs_sel_i[2] 0
8 *611:11 *613:11 0.0206525
9 *611:11 *613:17 0.000883562
10 *611:11 *613:19 0.000262835
11 *611:11 *614:11 0.00198222
12 *611:11 *622:11 0
13 *611:11 *635:11 0
14 *611:11 *637:11 0
15 *611:11 *639:15 0.00174769
16 *611:17 *613:19 0.000700172
17 *611:17 *634:11 0
18 *611:19 *613:19 0.00353773
19 *611:19 *643:9 0
20 *579:9 *611:19 0
21 *605:11 *611:11 0
*RES
1 *649:wbs_dat_o[12] *611:9 14.7768 
2 *611:9 *611:11 237.723 
3 *611:11 *611:17 13.7054 
4 *611:17 *611:19 65.0179 
5 *611:19 wbs_dat_o[12] 9.26786 
*END

*D_NET *612 0.0704823
*CONN
*P wbs_dat_o[13] O
*I *649:wbs_dat_o[13] O *D vco_adc_wrapper
*CAP
1 wbs_dat_o[13] 0.00249445
2 *649:wbs_dat_o[13] 0.00094744
3 *612:11 0.00816823
4 *612:9 0.00662122
5 wbs_dat_o[13] wbs_dat_o[15] 0.00121759
6 wbs_dat_o[13] wbs_dat_o[9] 0.00544395
7 wbs_dat_o[13] *634:9 0
8 *612:11 *614:11 0.00887882
9 *612:11 *615:11 0.00722118
10 *612:11 *621:11 0.000478459
11 *612:11 *639:15 0.0136855
12 *649:wbs_adr_i[10] *612:11 0
13 *544:15 wbs_dat_o[13] 0.00190081
14 *547:29 *612:11 0.0128431
15 *583:9 wbs_dat_o[13] 0.000160829
16 *601:13 wbs_dat_o[13] 0.000420775
*RES
1 *649:wbs_dat_o[13] *612:9 14.7493 
2 *612:9 *612:11 49.2685 
3 *612:11 wbs_dat_o[13] 40.8976 
*END

*D_NET *613 0.071018
*CONN
*P wbs_dat_o[14] O
*I *649:wbs_dat_o[14] O *D vco_adc_wrapper
*CAP
1 wbs_dat_o[14] 0.000308753
2 *649:wbs_dat_o[14] 0.000853658
3 *613:19 0.00295963
4 *613:17 0.00358391
5 *613:11 0.00737279
6 *613:9 0.00729341
7 wbs_dat_o[14] *633:13 0
8 *613:11 *614:11 0.00471171
9 *613:11 *621:11 0.0174366
10 *613:11 *622:11 0
11 *613:17 *614:11 0.000222167
12 *649:wbs_adr_i[10] *613:19 0.000238638
13 *579:9 *613:11 0
14 *579:9 *613:17 0
15 *579:9 *613:19 0
16 *611:11 *613:11 0.0206525
17 *611:11 *613:17 0.000883562
18 *611:11 *613:19 0.000262835
19 *611:17 *613:19 0.000700172
20 *611:19 *613:19 0.00353773
*RES
1 *649:wbs_dat_o[14] *613:9 14.4732 
2 *613:9 *613:11 256.205 
3 *613:11 *613:17 23.1518 
4 *613:17 *613:19 67.0714 
5 *613:19 wbs_dat_o[14] 9.57143 
*END

*D_NET *614 0.0798084
*CONN
*P wbs_dat_o[15] O
*I *649:wbs_dat_o[15] O *D vco_adc_wrapper
*CAP
1 wbs_dat_o[15] 0.00204411
2 *649:wbs_dat_o[15] 0.000832715
3 *614:11 0.0103787
4 *614:9 0.00916733
5 wbs_dat_o[15] wbs_dat_o[9] 0.000123076
6 *614:11 *615:11 0.00142541
7 *614:11 *621:11 0.0029571
8 *614:11 *626:11 0.00151532
9 *614:11 *628:11 0.00602532
10 *614:11 *639:15 0.0136797
11 wbs_dat_o[13] wbs_dat_o[15] 0.00121759
12 *649:wbs_adr_i[10] *614:11 0.00463226
13 *649:wbs_adr_i[4] wbs_dat_o[15] 0.000404065
14 *649:wbs_adr_i[6] wbs_dat_o[15] 0.000694413
15 *649:wbs_dat_i[5] wbs_dat_o[15] 0
16 *544:15 wbs_dat_o[15] 0.000439038
17 *550:9 wbs_dat_o[15] 0.00011307
18 *551:11 wbs_dat_o[15] 0.00228282
19 *570:9 wbs_dat_o[15] 0.00293119
20 *584:9 wbs_dat_o[15] 0.000223526
21 *585:7 wbs_dat_o[15] 0.000132957
22 *585:9 *614:11 0.00279372
23 *611:11 *614:11 0.00198222
24 *612:11 *614:11 0.00887882
25 *613:11 *614:11 0.00471171
26 *613:17 *614:11 0.000222167
*RES
1 *649:wbs_dat_o[15] *614:9 13.535 
2 *614:9 *614:11 55.8266 
3 *614:11 wbs_dat_o[15] 37.8175 
*END

*D_NET *615 0.095652
*CONN
*P wbs_dat_o[16] O
*I *649:wbs_dat_o[16] O *D vco_adc_wrapper
*CAP
1 wbs_dat_o[16] 0.000209897
2 *649:wbs_dat_o[16] 0.0008049
3 *615:11 0.00865873
4 *615:9 0.00925374
5 *615:11 *617:11 0.0392695
6 *615:11 *622:11 0.00273782
7 *615:11 *623:11 0.00314945
8 *615:11 *624:11 0.00549758
9 *615:11 *628:11 0
10 *615:11 *635:11 0.000538514
11 *649:wbs_adr_i[10] *615:11 0
12 *547:29 *615:11 0.00736736
13 *593:11 *615:11 0.00477791
14 *603:11 *615:11 0.00309115
15 *604:11 *615:11 0.000172806
16 *605:11 *615:11 0.00147612
17 *612:11 *615:11 0.00722118
18 *614:11 *615:11 0.00142541
*RES
1 *649:wbs_dat_o[16] *615:9 15.3386 
2 *615:9 *615:11 65.7718 
3 *615:11 wbs_dat_o[16] 5.02607 
*END

*D_NET *616 0.0974083
*CONN
*P wbs_dat_o[17] O
*I *649:wbs_dat_o[17] O *D vco_adc_wrapper
*CAP
1 wbs_dat_o[17] 0.000689777
2 *649:wbs_dat_o[17] 8.9825e-05
3 *616:9 0.00647023
4 *616:7 0.00587028
5 *616:9 *618:9 0.0379209
6 *649:wbs_adr_i[5] wbs_dat_o[17] 2.70189e-05
7 *550:9 *616:9 0.0356755
8 *551:13 *616:9 0.00701105
9 *552:11 *616:9 0.000130158
10 *552:13 *616:9 0.000254035
11 *553:9 *616:9 0.000462034
12 *583:9 *616:9 0.000322964
13 *584:9 *616:9 0.00248454
*RES
1 *649:wbs_dat_o[17] *616:7 5.625 
2 *616:7 *616:9 390.92 
3 *616:9 wbs_dat_o[17] 15.6429 
*END

*D_NET *617 0.116307
*CONN
*P wbs_dat_o[18] O
*I *649:wbs_dat_o[18] O *D vco_adc_wrapper
*CAP
1 wbs_dat_o[18] 0.000163504
2 *649:wbs_dat_o[18] 0.000958793
3 *617:11 0.00729863
4 *617:9 0.00809392
5 *617:11 wbs_dat_o[6] 0.000526702
6 *617:11 *620:11 0.042285
7 *617:11 *627:11 0.00536227
8 *617:11 *628:11 0
9 *617:11 *637:11 0.00118705
10 *617:11 *638:11 0.000180699
11 *595:11 *617:11 0.00625982
12 *604:11 *617:11 0.00298245
13 *606:11 *617:11 0.00154368
14 *607:11 *617:11 0.000194851
15 *615:11 *617:11 0.0392695
*RES
1 *649:wbs_dat_o[18] *617:9 17.1779 
2 *617:9 *617:11 71.1047 
3 *617:11 wbs_dat_o[18] 4.29393 
*END

*D_NET *618 0.105846
*CONN
*P wbs_dat_o[19] O
*I *649:wbs_dat_o[19] O *D vco_adc_wrapper
*CAP
1 wbs_dat_o[19] 0.00074075
2 *649:wbs_dat_o[19] 5.70137e-05
3 *618:9 0.00689106
4 *618:7 0.00620732
5 *649:wbs_adr_i[6] wbs_dat_o[19] 0
6 *551:13 *618:9 0.00733661
7 *552:13 *618:9 0.000464839
8 *553:9 *618:9 0.0012659
9 *555:9 *618:9 0.000971175
10 *556:9 *618:9 0.000278116
11 *583:9 *618:9 0.00029625
12 *586:9 *618:9 0.000112714
13 *588:9 *618:9 0.0433031
14 *616:9 *618:9 0.0379209
*RES
1 *649:wbs_dat_o[19] *618:7 5.32143 
2 *618:7 *618:9 420.902 
3 *618:9 wbs_dat_o[19] 15.9464 
*END

*D_NET *619 0.0362718
*CONN
*P wbs_dat_o[1] O
*I *649:wbs_dat_o[1] O *D vco_adc_wrapper
*CAP
1 wbs_dat_o[1] 0.000110502
2 *649:wbs_dat_o[1] 0.000873475
3 *619:11 0.00208063
4 *619:9 0.00284361
5 *619:11 wbs_dat_o[6] 0.000948165
6 *619:11 *638:11 0.00054197
7 *649:wb_rst_i *619:11 0.000928282
8 *649:wbs_dat_i[0] *619:11 0.00141199
9 *574:7 *619:9 0
10 *587:11 *619:11 0.0134527
11 *598:11 *619:11 0.0127955
12 *603:11 *619:11 0.000114324
13 *604:11 *619:11 0.000158552
14 *606:11 *619:11 1.21289e-05
*RES
1 *649:wbs_dat_o[1] *619:9 19.0268 
2 *619:9 *619:11 135.661 
3 *619:11 wbs_dat_o[1] 5.66071 
*END

*D_NET *620 0.125303
*CONN
*P wbs_dat_o[20] O
*I *649:wbs_dat_o[20] O *D vco_adc_wrapper
*CAP
1 wbs_dat_o[20] 0.000284404
2 *649:wbs_dat_o[20] 0.000931882
3 *620:11 0.00796045
4 *620:9 0.00860793
5 *620:11 wbs_dat_o[21] 0.00781321
6 *620:11 wbs_dat_o[26] 0.00632289
7 *620:11 wbs_dat_o[6] 0.000168408
8 *620:11 *628:11 0
9 *620:11 *629:11 0.000744451
10 *620:11 *638:11 0.00148723
11 *596:11 *620:11 0.00771308
12 *597:11 *620:11 0.00673822
13 *600:17 *620:11 0.0301231
14 *607:11 *620:11 0.00188482
15 *609:11 *620:11 0.000506039
16 *610:11 *620:11 0.00173152
17 *617:11 *620:11 0.042285
*RES
1 *649:wbs_dat_o[20] *620:9 17.785 
2 *620:9 *620:11 75.9332 
3 *620:11 wbs_dat_o[20] 5.11536 
*END

*D_NET *621 0.0984982
*CONN
*P wbs_dat_o[21] O
*I *649:wbs_dat_o[21] O *D vco_adc_wrapper
*CAP
1 wbs_dat_o[21] 0.00266797
2 *649:wbs_dat_o[21] 0.000629201
3 *621:11 0.0129921
4 *621:9 0.0109534
5 *621:11 *622:11 0
6 *621:11 *626:11 0.0336157
7 *621:11 *628:11 0.00347747
8 *621:11 *639:15 0.000104613
9 *649:wbs_dat_i[9] wbs_dat_o[21] 0.000344608
10 *547:29 wbs_dat_o[21] 0.000179588
11 *561:7 wbs_dat_o[21] 3.75381e-05
12 *579:9 *621:11 0
13 *609:11 wbs_dat_o[21] 0.00168515
14 *610:11 wbs_dat_o[21] 0.00312552
15 *612:11 *621:11 0.000478459
16 *613:11 *621:11 0.0174366
17 *614:11 *621:11 0.0029571
18 *620:11 wbs_dat_o[21] 0.00781321
*RES
1 *649:wbs_dat_o[21] *621:9 14.1696 
2 *621:9 *621:11 379.625 
3 *621:11 wbs_dat_o[21] 30.4729 
*END

*D_NET *622 0.0851328
*CONN
*P wbs_dat_o[22] O
*I *649:wbs_dat_o[22] O *D vco_adc_wrapper
*CAP
1 wbs_dat_o[22] 0.000113559
2 *649:wbs_dat_o[22] 0.000708412
3 *622:11 0.0154504
4 *622:9 0.0160453
5 wbs_dat_o[22] *637:9 0
6 *622:11 *623:11 0.0477675
7 *622:11 *626:11 0
8 *622:11 *637:11 6.38036e-05
9 *547:29 *622:11 0.00208101
10 *606:11 *622:11 0.000164975
11 *611:11 *622:11 0
12 *613:11 *622:11 0
13 *615:11 *622:11 0.00273782
14 *621:11 *622:11 0
*RES
1 *649:wbs_dat_o[22] *622:9 16.5982 
2 *622:9 *622:11 464.232 
3 *622:11 wbs_dat_o[22] 6.23214 
*END

*D_NET *623 0.117875
*CONN
*P wbs_dat_o[23] O
*I *649:wbs_dat_o[23] O *D vco_adc_wrapper
*CAP
1 wbs_dat_o[23] 9.26391e-05
2 *649:wbs_dat_o[23] 0.000711077
3 *623:11 0.00675996
4 *623:9 0.0073784
5 *623:11 *624:11 0.0493536
6 *623:11 *626:11 0
7 *623:11 *638:11 0.000102386
8 *547:29 *623:11 0.00231508
9 *606:11 *623:11 0.000244391
10 *615:11 *623:11 0.00314945
11 *622:11 *623:11 0.0477675
*RES
1 *649:wbs_dat_o[23] *623:9 16.9018 
2 *623:9 *623:11 479.429 
3 *623:11 wbs_dat_o[23] 5.92857 
*END

*D_NET *624 0.121505
*CONN
*P wbs_dat_o[24] O
*I *649:wbs_dat_o[24] O *D vco_adc_wrapper
*CAP
1 wbs_dat_o[24] 6.0189e-05
2 *649:wbs_dat_o[24] 0.000700569
3 *624:11 0.00687751
4 *624:9 0.00751789
5 wbs_dat_o[24] *638:9 2.54941e-05
6 *624:11 *638:11 4.05411e-05
7 *593:11 *624:11 0.0512873
8 *607:11 *624:11 0.000143974
9 *615:11 *624:11 0.00549758
10 *623:11 *624:11 0.0493536
*RES
1 *649:wbs_dat_o[24] *624:9 17.2054 
2 *624:9 *624:11 494.214 
3 *624:11 wbs_dat_o[24] 5.625 
*END

*D_NET *625 0.0767879
*CONN
*P wbs_dat_o[25] O
*I *649:wbs_dat_o[25] O *D vco_adc_wrapper
*CAP
1 wbs_dat_o[25] 0.000947094
2 *649:wbs_dat_o[25] 0.000147825
3 *625:19 0.0169385
4 *625:17 0.0161593
5 *625:11 0.00299033
6 *625:9 0.00297029
7 *625:11 *631:17 0.000223549
8 *649:wbs_adr_i[9] wbs_dat_o[25] 0
9 *545:9 *625:19 0.00123762
10 *548:9 *625:19 0.0158667
11 *549:9 *625:19 0.00178617
12 *560:9 *625:11 0
13 *561:9 *625:11 0.000111857
14 *562:9 *625:11 0
15 *583:9 *625:19 0.00164788
16 *592:9 *625:11 0.0001638
17 *592:9 *625:19 0.00654541
18 *594:9 *625:19 0.000362507
19 *599:9 *625:19 0.00868908
*RES
1 *649:wbs_dat_o[25] *625:9 7.49107 
2 *625:9 *625:11 55.9821 
3 *625:11 *625:17 11.8571 
4 *625:17 *625:19 453.554 
5 *625:19 wbs_dat_o[25] 18.0714 
*END

*D_NET *626 0.0981373
*CONN
*P wbs_dat_o[26] O
*I *649:wbs_dat_o[26] O *D vco_adc_wrapper
*CAP
1 wbs_dat_o[26] 0.00242842
2 *649:wbs_dat_o[26] 0.000503903
3 *626:11 0.0207375
4 *626:9 0.018813
5 wbs_dat_o[26] *629:11 0.000182899
6 *626:11 *628:11 0.010982
7 *566:7 wbs_dat_o[26] 0
8 *579:9 *626:11 0
9 *581:9 *626:11 0
10 *582:9 *626:11 0
11 *599:7 wbs_dat_o[26] 0
12 *609:11 wbs_dat_o[26] 0.000821357
13 *610:11 wbs_dat_o[26] 0.00221424
14 *614:11 *626:11 0.00151532
15 *620:11 wbs_dat_o[26] 0.00632289
16 *621:11 *626:11 0.0336157
17 *622:11 *626:11 0
18 *623:11 *626:11 0
*RES
1 *649:wbs_dat_o[26] *626:9 13.8661 
2 *626:9 *626:11 469.571 
3 *626:11 wbs_dat_o[26] 27.721 
*END

*D_NET *627 0.133604
*CONN
*P wbs_dat_o[27] O
*I *649:wbs_dat_o[27] O *D vco_adc_wrapper
*CAP
1 wbs_dat_o[27] 0.000225837
2 *649:wbs_dat_o[27] 0.0007191
3 *627:11 0.00687777
4 *627:9 0.00737103
5 *595:11 *627:11 0.0562558
6 *596:11 *627:11 0.0564605
7 *609:11 *627:11 0.000331269
8 *617:11 *627:11 0.00536227
*RES
1 *649:wbs_dat_o[27] *627:9 18.1161 
2 *627:9 *627:11 537.339 
3 *627:11 wbs_dat_o[27] 6.48214 
*END

*D_NET *628 0.0883804
*CONN
*P wbs_dat_o[28] O
*I *649:wbs_dat_o[28] O *D vco_adc_wrapper
*CAP
1 wbs_dat_o[28] 0.000758332
2 *649:wbs_dat_o[28] 0.000503486
3 *628:31 0.00628898
4 *628:11 0.0231908
5 *628:9 0.0181637
6 *649:wbs_dat_i[13] *628:31 0.00164094
7 *545:9 *628:31 0.000320737
8 *564:9 *628:11 0.00740379
9 *580:19 *628:31 0.0041443
10 *585:9 *628:11 0.00444862
11 *586:9 *628:31 0.00032085
12 *594:9 *628:31 0.000295059
13 *600:17 *628:11 0
14 *609:9 wbs_dat_o[28] 0.000416
15 *614:11 *628:11 0.00602532
16 *615:11 *628:11 0
17 *617:11 *628:11 0
18 *620:11 *628:11 0
19 *621:11 *628:11 0.00347747
20 *626:11 *628:11 0.010982
*RES
1 *649:wbs_dat_o[28] *628:9 12.9279 
2 *628:9 *628:11 79.5726 
3 *628:11 *628:31 38.5211 
4 *628:31 wbs_dat_o[28] 12.8125 
*END

*D_NET *629 0.149431
*CONN
*P wbs_dat_o[29] O
*I *649:wbs_dat_o[29] O *D vco_adc_wrapper
*CAP
1 wbs_dat_o[29] 0.000144988
2 *649:wbs_dat_o[29] 0.000740072
3 *629:11 0.00745095
4 *629:9 0.00804604
5 *629:11 *632:11 0.0571324
6 wbs_dat_o[26] *629:11 0.000182899
7 *597:11 *629:11 0.0598399
8 *600:17 *629:11 0.0135194
9 *610:11 *629:11 0.00162954
10 *620:11 *629:11 0.000744451
*RES
1 *649:wbs_dat_o[29] *629:9 19.0268 
2 *629:9 *629:11 569.786 
3 *629:11 wbs_dat_o[29] 5.66071 
*END

*D_NET *630 0.0345278
*CONN
*P wbs_dat_o[2] O
*I *649:wbs_dat_o[2] O *D vco_adc_wrapper
*CAP
1 wbs_dat_o[2] 0.00458681
2 *649:wbs_dat_o[2] 0.00458681
3 wbs_dat_o[2] *642:9 0.000121926
4 wbs_ack_o wbs_dat_o[2] 0.000789115
5 wbs_dat_o[0] wbs_dat_o[2] 0.00839161
6 *649:wb_rst_i wbs_dat_o[2] 9.75805e-05
7 *649:wbs_cyc_i wbs_dat_o[2] 0.000168615
8 *546:15 wbs_dat_o[2] 0
9 *569:11 wbs_dat_o[2] 0
10 *601:13 wbs_dat_o[2] 0.0157853
*RES
1 *649:wbs_dat_o[2] wbs_dat_o[2] 47.8665 
*END

*D_NET *631 0.135793
*CONN
*P wbs_dat_o[30] O
*I *649:wbs_dat_o[30] O *D vco_adc_wrapper
*CAP
1 wbs_dat_o[30] 0.00112735
2 *649:wbs_dat_o[30] 0.00509118
3 *631:19 0.0109653
4 *631:17 0.0149292
5 *649:wbs_dat_i[30] *631:17 0.0117957
6 *548:9 *631:19 0.00169531
7 *549:9 *631:19 0.002279
8 *555:9 *631:19 0.00063276
9 *557:9 *631:19 0.00141606
10 *559:9 *631:19 0
11 *561:9 *631:17 0.00107678
12 *561:9 *631:19 0
13 *563:9 *631:17 0.00406531
14 *564:9 *631:17 0.00134693
15 *566:9 *631:17 0.000354099
16 *586:9 *631:19 0.0260439
17 *588:9 *631:19 0.000370196
18 *590:9 *631:19 0.00175898
19 *592:9 *631:19 0.00377702
20 *599:9 *631:17 0.00046243
21 *599:9 *631:19 0.0462545
22 *610:9 wbs_dat_o[30] 0.000128012
23 *625:11 *631:17 0.000223549
*RES
1 *649:wbs_dat_o[30] *631:17 38.1209 
2 *631:17 *631:19 72.9424 
3 *631:19 wbs_dat_o[30] 18.6511 
*END

*D_NET *632 0.126603
*CONN
*P wbs_dat_o[31] O
*I *649:wbs_dat_o[31] O *D vco_adc_wrapper
*CAP
1 wbs_dat_o[31] 0.000146291
2 *649:wbs_dat_o[31] 0.000725787
3 *632:11 0.020533
4 *632:9 0.0211125
5 *600:17 *632:11 0.0269532
6 *629:11 *632:11 0.0571324
*RES
1 *649:wbs_dat_o[31] *632:9 19.3304 
2 *632:9 *632:11 597.304 
3 *632:11 wbs_dat_o[31] 6.48214 
*END

*D_NET *633 0.0520503
*CONN
*P wbs_dat_o[3] O
*I *649:wbs_dat_o[3] O *D vco_adc_wrapper
*CAP
1 wbs_dat_o[3] 6.9737e-05
2 *649:wbs_dat_o[3] 0.00370392
3 *633:13 0.00377366
4 *633:13 *649:wbs_stb_i 0.000676653
5 *633:13 *634:11 0.00293056
6 *633:13 *640:11 0.000192264
7 *633:13 *643:9 0.00353608
8 wbs_dat_o[14] *633:13 0
9 *649:wbs_cyc_i wbs_dat_o[3] 2.69575e-05
10 *649:wbs_cyc_i *633:13 0.000121515
11 *649:wbs_dat_i[0] *633:13 0.000278026
12 *569:11 *633:13 0
13 *581:7 *633:13 0.00017455
14 *601:13 *633:13 0.0186584
15 *602:13 *633:13 0.017908
*RES
1 *649:wbs_dat_o[3] *633:13 49.3716 
2 *633:13 wbs_dat_o[3] 1.27679 
*END

*D_NET *634 0.0486422
*CONN
*P wbs_dat_o[4] O
*I *649:wbs_dat_o[4] O *D vco_adc_wrapper
*CAP
1 wbs_dat_o[4] 8.9209e-05
2 *649:wbs_dat_o[4] 0.000584709
3 *634:11 0.00350586
4 *634:9 0.00400136
5 *634:11 *635:11 0.0190196
6 *634:11 *640:11 0.00019754
7 *634:11 *643:9 0.0174074
8 wbs_dat_o[13] *634:9 0
9 *551:11 *634:9 0.000794877
10 *602:13 wbs_dat_o[4] 0
11 *602:13 *634:11 0.000111084
12 *611:17 *634:11 0
13 *633:13 *634:11 0.00293056
*RES
1 *649:wbs_dat_o[4] *634:9 16.9018 
2 *634:9 *634:11 194.804 
3 *634:11 wbs_dat_o[4] 5.92857 
*END

*D_NET *635 0.0524446
*CONN
*P wbs_dat_o[5] O
*I *649:wbs_dat_o[5] O *D vco_adc_wrapper
*CAP
1 wbs_dat_o[5] 7.43556e-05
2 *649:wbs_dat_o[5] 0.000757906
3 *635:11 0.00367275
4 *635:9 0.0043563
5 *635:9 *639:15 0
6 *635:11 *640:11 0.000793776
7 *553:7 *635:9 0.000231618
8 *587:11 *635:11 2.5428e-05
9 *602:13 *635:11 0.00360709
10 *605:11 *635:11 0.0193672
11 *611:11 *635:11 0
12 *615:11 *635:11 0.000538514
13 *634:11 *635:11 0.0190196
*RES
1 *649:wbs_dat_o[5] *635:9 17.2054 
2 *635:9 *635:11 210 
3 *635:11 wbs_dat_o[5] 5.625 
*END

*D_NET *636 0.0576338
*CONN
*P wbs_dat_o[6] O
*I *649:wbs_dat_o[6] O *D vco_adc_wrapper
*CAP
1 wbs_dat_o[6] 0.00772824
2 *649:wbs_dat_o[6] 0.00106254
3 *636:9 0.00879078
4 *556:7 *636:9 0
5 *598:11 wbs_dat_o[6] 0.00315051
6 *604:11 wbs_dat_o[6] 0.0244481
7 *609:11 wbs_dat_o[6] 0.00411922
8 *610:11 wbs_dat_o[6] 0.00669114
9 *617:11 wbs_dat_o[6] 0.000526702
10 *619:11 wbs_dat_o[6] 0.000948165
11 *620:11 wbs_dat_o[6] 0.000168408
*RES
1 *649:wbs_dat_o[6] *636:9 18.3921 
2 *636:9 wbs_dat_o[6] 47.5101 
*END

*D_NET *637 0.063116
*CONN
*P wbs_dat_o[7] O
*I *649:wbs_dat_o[7] O *D vco_adc_wrapper
*CAP
1 wbs_dat_o[7] 0.000151321
2 *649:wbs_dat_o[7] 0.000965819
3 *637:11 0.00356357
4 *637:9 0.00437806
5 wbs_dat_o[22] *637:9 0
6 *558:7 *637:9 0
7 *587:11 *637:11 0.000557927
8 *603:11 *637:11 0.00362737
9 *605:11 *637:11 0.0245106
10 *606:11 *637:11 0.0241104
11 *611:11 *637:11 0
12 *617:11 *637:11 0.00118705
13 *622:11 *637:11 6.38036e-05
*RES
1 *649:wbs_dat_o[7] *637:9 17.8125 
2 *637:9 *637:11 240.393 
3 *637:11 wbs_dat_o[7] 5.96429 
*END

*D_NET *638 0.0682336
*CONN
*P wbs_dat_o[8] O
*I *649:wbs_dat_o[8] O *D vco_adc_wrapper
*CAP
1 wbs_dat_o[8] 0.000159323
2 *649:wbs_dat_o[8] 0.00107666
3 *638:11 0.00336639
4 *638:9 0.00428373
5 wbs_dat_o[24] *638:9 2.54941e-05
6 *649:wbs_dat_i[1] wbs_dat_o[8] 2.06112e-05
7 *560:7 *638:9 0
8 *598:11 *638:11 6.44345e-05
9 *604:11 *638:11 0.00453232
10 *606:11 *638:11 0.0262402
11 *607:11 *638:11 0.0261117
12 *617:11 *638:11 0.000180699
13 *619:11 *638:11 0.00054197
14 *620:11 *638:11 0.00148723
15 *623:11 *638:11 0.000102386
16 *624:11 *638:11 4.05411e-05
*RES
1 *649:wbs_dat_o[8] *638:9 18.4196 
2 *638:9 *638:11 255.589 
3 *638:11 wbs_dat_o[8] 5.66071 
*END

*D_NET *639 0.0736526
*CONN
*P wbs_dat_o[9] O
*I *649:wbs_dat_o[9] O *D vco_adc_wrapper
*CAP
1 wbs_dat_o[9] 0.0042913
2 *649:wbs_dat_o[9] 0.00346749
3 *639:15 0.00775879
4 wbs_dat_o[9] *649:wbs_sel_i[1] 0
5 wbs_dat_o[13] wbs_dat_o[9] 0.00544395
6 wbs_dat_o[15] wbs_dat_o[9] 0.000123076
7 *649:wbs_adr_i[2] wbs_dat_o[9] 0.000843096
8 *544:15 wbs_dat_o[9] 0.00154751
9 *545:9 wbs_dat_o[9] 0.0142605
10 *547:15 wbs_dat_o[9] 0.000753547
11 *548:9 wbs_dat_o[9] 0.00037954
12 *549:9 wbs_dat_o[9] 0.00184098
13 *551:11 wbs_dat_o[9] 0.000923091
14 *552:11 wbs_dat_o[9] 0.00169087
15 *552:13 wbs_dat_o[9] 0.000131169
16 *553:7 *639:15 0
17 *568:17 wbs_dat_o[9] 0.000534
18 *583:9 wbs_dat_o[9] 0.000446216
19 *586:7 *639:15 0
20 *611:11 *639:15 0.00174769
21 *612:11 *639:15 0.0136855
22 *614:11 *639:15 0.0136797
23 *621:11 *639:15 0.000104613
24 *635:9 *639:15 0
*RES
1 *649:wbs_dat_o[9] *639:15 48.554 
2 *639:15 wbs_dat_o[9] 45.8397 
*END

*D_NET *640 0.0229171
*CONN
*P wbs_sel_i[0] I
*I *649:wbs_sel_i[0] I *D vco_adc_wrapper
*CAP
1 wbs_sel_i[0] 0.000104904
2 *649:wbs_sel_i[0] 0.000803423
3 *640:11 0.00438882
4 *640:9 0.0036903
5 *640:11 *642:9 0
6 *640:11 *643:9 0
7 *649:wbs_dat_i[0] *640:11 0.000345496
8 *572:7 *649:wbs_sel_i[0] 0
9 *587:11 *640:11 0.0115676
10 *602:13 *640:11 0.000220597
11 *603:11 *640:11 0.000248307
12 *604:11 *640:11 0.000364031
13 *633:13 *640:11 0.000192264
14 *634:11 *640:11 0.00019754
15 *635:11 *640:11 0.000793776
*RES
1 wbs_sel_i[0] *640:9 6.48214 
2 *640:9 *640:11 118.411 
3 *640:11 *649:wbs_sel_i[0] 18.4196 
*END

*D_NET *641 0.0326506
*CONN
*P wbs_sel_i[1] I
*I *649:wbs_sel_i[1] I *D vco_adc_wrapper
*CAP
1 wbs_sel_i[1] 0.00417697
2 *649:wbs_sel_i[1] 0.00417697
3 wbs_dat_o[9] *649:wbs_sel_i[1] 0
4 *649:wbs_adr_i[0] *649:wbs_sel_i[1] 0.000289486
5 *649:wbs_adr_i[2] *649:wbs_sel_i[1] 0.0151395
6 *544:15 *649:wbs_sel_i[1] 1.8957e-06
7 *569:11 *649:wbs_sel_i[1] 0
8 *570:9 *649:wbs_sel_i[1] 0.00886583
*RES
1 wbs_sel_i[1] *649:wbs_sel_i[1] 43.8898 
*END

*D_NET *642 0.0309303
*CONN
*P wbs_sel_i[2] I
*I *649:wbs_sel_i[2] I *D vco_adc_wrapper
*CAP
1 wbs_sel_i[2] 0.000124494
2 *649:wbs_sel_i[2] 0.000618674
3 *642:9 0.00638523
4 *642:7 0.00589105
5 *642:9 *643:9 0.0148489
6 wbs_dat_o[12] *649:wbs_sel_i[2] 0
7 wbs_dat_o[2] *642:9 0.000121926
8 *579:7 *649:wbs_sel_i[2] 0
9 *601:13 *642:9 0.00294006
10 *640:11 *642:9 0
*RES
1 wbs_sel_i[2] *642:7 6.53571 
2 *642:7 *642:9 160.714 
3 *642:9 *649:wbs_sel_i[2] 15.4732 
*END

*D_NET *643 0.0449112
*CONN
*P wbs_sel_i[3] I
*I *649:wbs_sel_i[3] I *D vco_adc_wrapper
*CAP
1 wbs_sel_i[3] 0.000104391
2 *649:wbs_sel_i[3] 0.000538212
3 *643:9 0.00404233
4 *643:7 0.00360851
5 *549:7 *649:wbs_sel_i[3] 0.000825399
6 *611:19 *643:9 0
7 *633:13 *643:9 0.00353608
8 *634:11 *643:9 0.0174074
9 *640:11 *643:9 0
10 *642:9 *643:9 0.0148489
*RES
1 wbs_sel_i[3] *643:7 6.23214 
2 *643:7 *643:9 180.018 
3 *643:9 *649:wbs_sel_i[3] 16.5982 
*END

*D_NET *644 0.0249687
*CONN
*P wbs_stb_i I
*I *649:wbs_stb_i I *D vco_adc_wrapper
*CAP
1 wbs_stb_i 0.00223013
2 *649:wbs_stb_i 0.00223013
3 *649:wb_rst_i *649:wbs_stb_i 0.00103929
4 *649:wbs_cyc_i *649:wbs_stb_i 0.00959478
5 *649:wbs_dat_i[0] *649:wbs_stb_i 0.00891993
6 *569:11 *649:wbs_stb_i 0.0002778
7 *633:13 *649:wbs_stb_i 0.000676653
*RES
1 wbs_stb_i *649:wbs_stb_i 37.3448 
*END

*D_NET *645 0.022073
*CONN
*P wbs_we_i I
*I *649:wbs_we_i I *D vco_adc_wrapper
*CAP
1 wbs_we_i 0.00436398
2 *649:wbs_we_i 0.00436398
3 *649:wb_clk_i *649:wbs_we_i 0.0013617
4 *649:wbs_adr_i[0] *649:wbs_we_i 0.00122095
5 *649:wbs_adr_i[1] *649:wbs_we_i 0.00835405
6 *540:9 *649:wbs_we_i 0.00101265
7 *568:17 *649:wbs_we_i 0.00139569
*RES
1 wbs_we_i *649:wbs_we_i 38.0511 
*END

*D_NET *646 0.301821
*CONN
*I *649:phase_in I *D vco_adc_wrapper
*I *648:quantizer_out O *D vco_adc2
*CAP
1 *649:phase_in 0.000572392
2 *648:quantizer_out 0.000603162
3 *646:17 0.0156514
4 *646:13 0.143749
5 *646:11 0.129273
6 *646:17 *647:11 0.0119716
*RES
1 *648:quantizer_out *646:11 8.81758 
2 *646:11 *646:13 310.911 
3 *646:13 *646:17 49.1833 
4 *646:17 *649:phase_in 15.16 
*END

*D_NET *647 0.353671
*CONN
*I *648:enable_in I *D vco_adc2
*I *649:vco_enb_o O *D vco_adc_wrapper
*CAP
1 *648:enable_in 0.00056621
2 *649:vco_enb_o 0.000517979
3 *647:15 0.0541088
4 *647:13 0.0535425
5 *647:11 0.0444214
6 *647:9 0.0449394
7 *648:clk *647:15 0.143603
8 *646:17 *647:11 0.0119716
*RES
1 *649:vco_enb_o *647:9 15.1696 
2 *647:9 *647:11 850.714 
3 *647:11 *647:13 4.5 
4 *647:13 *647:15 1759.32 
5 *647:15 *648:enable_in 19.7321 
*END
