*SPEF "ieee 1481-1999"
*DESIGN "user_project_wrapper"
*DATE "11:11:11 Fri 11 11, 1111"
*VENDOR "OpenRCX"
*PROGRAM "Parallel Extraction"
*VERSION "1.0"
*DESIGN_FLOW "NAME_SCOPE LOCAL" "PIN_CAP NONE"
*DIVIDER /
*DELIMITER :
*BUS_DELIMITER []
*T_UNIT 1 NS
*C_UNIT 1 PF
*R_UNIT 1 OHM
*L_UNIT 1 HENRY

*NAME_MAP
*1 analog_io[0]
*2 analog_io[10]
*3 analog_io[11]
*4 analog_io[12]
*5 analog_io[13]
*6 analog_io[14]
*7 analog_io[15]
*8 analog_io[16]
*9 analog_io[17]
*10 analog_io[18]
*11 analog_io[19]
*12 analog_io[1]
*13 analog_io[20]
*14 analog_io[21]
*15 analog_io[22]
*16 analog_io[23]
*17 analog_io[24]
*18 analog_io[25]
*19 analog_io[26]
*20 analog_io[27]
*21 analog_io[28]
*22 analog_io[2]
*23 analog_io[3]
*24 analog_io[4]
*25 analog_io[5]
*26 analog_io[6]
*27 analog_io[7]
*28 analog_io[8]
*29 analog_io[9]
*30 io_in[0]
*31 io_in[10]
*32 io_in[11]
*33 io_in[12]
*34 io_in[13]
*35 io_in[14]
*36 io_in[15]
*37 io_in[16]
*38 io_in[17]
*39 io_in[18]
*40 io_in[19]
*41 io_in[1]
*42 io_in[20]
*43 io_in[21]
*44 io_in[22]
*45 io_in[23]
*46 io_in[24]
*47 io_in[25]
*48 io_in[26]
*49 io_in[27]
*50 io_in[28]
*51 io_in[29]
*52 io_in[2]
*53 io_in[30]
*54 io_in[31]
*55 io_in[32]
*56 io_in[33]
*57 io_in[34]
*58 io_in[35]
*59 io_in[36]
*60 io_in[37]
*61 io_in[3]
*62 io_in[4]
*63 io_in[5]
*64 io_in[6]
*65 io_in[7]
*66 io_in[8]
*67 io_in[9]
*68 io_oeb[0]
*69 io_oeb[10]
*70 io_oeb[11]
*71 io_oeb[12]
*72 io_oeb[13]
*73 io_oeb[14]
*74 io_oeb[15]
*75 io_oeb[16]
*76 io_oeb[17]
*77 io_oeb[18]
*78 io_oeb[19]
*79 io_oeb[1]
*80 io_oeb[20]
*81 io_oeb[21]
*82 io_oeb[22]
*83 io_oeb[23]
*84 io_oeb[24]
*85 io_oeb[25]
*86 io_oeb[26]
*87 io_oeb[27]
*88 io_oeb[28]
*89 io_oeb[29]
*90 io_oeb[2]
*91 io_oeb[30]
*92 io_oeb[31]
*93 io_oeb[32]
*94 io_oeb[33]
*95 io_oeb[34]
*96 io_oeb[35]
*97 io_oeb[36]
*98 io_oeb[37]
*99 io_oeb[3]
*100 io_oeb[4]
*101 io_oeb[5]
*102 io_oeb[6]
*103 io_oeb[7]
*104 io_oeb[8]
*105 io_oeb[9]
*106 io_out[0]
*107 io_out[10]
*108 io_out[11]
*109 io_out[12]
*110 io_out[13]
*111 io_out[14]
*112 io_out[15]
*113 io_out[16]
*114 io_out[17]
*115 io_out[18]
*116 io_out[19]
*117 io_out[1]
*118 io_out[20]
*119 io_out[21]
*120 io_out[22]
*121 io_out[23]
*122 io_out[24]
*123 io_out[25]
*124 io_out[26]
*125 io_out[27]
*126 io_out[28]
*127 io_out[29]
*128 io_out[2]
*129 io_out[30]
*130 io_out[31]
*131 io_out[32]
*132 io_out[33]
*133 io_out[34]
*134 io_out[35]
*135 io_out[36]
*136 io_out[37]
*137 io_out[3]
*138 io_out[4]
*139 io_out[5]
*140 io_out[6]
*141 io_out[7]
*142 io_out[8]
*143 io_out[9]
*144 la_data_in[0]
*145 la_data_in[100]
*146 la_data_in[101]
*147 la_data_in[102]
*148 la_data_in[103]
*149 la_data_in[104]
*150 la_data_in[105]
*151 la_data_in[106]
*152 la_data_in[107]
*153 la_data_in[108]
*154 la_data_in[109]
*155 la_data_in[10]
*156 la_data_in[110]
*157 la_data_in[111]
*158 la_data_in[112]
*159 la_data_in[113]
*160 la_data_in[114]
*161 la_data_in[115]
*162 la_data_in[116]
*163 la_data_in[117]
*164 la_data_in[118]
*165 la_data_in[119]
*166 la_data_in[11]
*167 la_data_in[120]
*168 la_data_in[121]
*169 la_data_in[122]
*170 la_data_in[123]
*171 la_data_in[124]
*172 la_data_in[125]
*173 la_data_in[126]
*174 la_data_in[127]
*175 la_data_in[12]
*176 la_data_in[13]
*177 la_data_in[14]
*178 la_data_in[15]
*179 la_data_in[16]
*180 la_data_in[17]
*181 la_data_in[18]
*182 la_data_in[19]
*183 la_data_in[1]
*184 la_data_in[20]
*185 la_data_in[21]
*186 la_data_in[22]
*187 la_data_in[23]
*188 la_data_in[24]
*189 la_data_in[25]
*190 la_data_in[26]
*191 la_data_in[27]
*192 la_data_in[28]
*193 la_data_in[29]
*194 la_data_in[2]
*195 la_data_in[30]
*196 la_data_in[31]
*197 la_data_in[32]
*198 la_data_in[33]
*199 la_data_in[34]
*200 la_data_in[35]
*201 la_data_in[36]
*202 la_data_in[37]
*203 la_data_in[38]
*204 la_data_in[39]
*205 la_data_in[3]
*206 la_data_in[40]
*207 la_data_in[41]
*208 la_data_in[42]
*209 la_data_in[43]
*210 la_data_in[44]
*211 la_data_in[45]
*212 la_data_in[46]
*213 la_data_in[47]
*214 la_data_in[48]
*215 la_data_in[49]
*216 la_data_in[4]
*217 la_data_in[50]
*218 la_data_in[51]
*219 la_data_in[52]
*220 la_data_in[53]
*221 la_data_in[54]
*222 la_data_in[55]
*223 la_data_in[56]
*224 la_data_in[57]
*225 la_data_in[58]
*226 la_data_in[59]
*227 la_data_in[5]
*228 la_data_in[60]
*229 la_data_in[61]
*230 la_data_in[62]
*231 la_data_in[63]
*232 la_data_in[64]
*233 la_data_in[65]
*234 la_data_in[66]
*235 la_data_in[67]
*236 la_data_in[68]
*237 la_data_in[69]
*238 la_data_in[6]
*239 la_data_in[70]
*240 la_data_in[71]
*241 la_data_in[72]
*242 la_data_in[73]
*243 la_data_in[74]
*244 la_data_in[75]
*245 la_data_in[76]
*246 la_data_in[77]
*247 la_data_in[78]
*248 la_data_in[79]
*249 la_data_in[7]
*250 la_data_in[80]
*251 la_data_in[81]
*252 la_data_in[82]
*253 la_data_in[83]
*254 la_data_in[84]
*255 la_data_in[85]
*256 la_data_in[86]
*257 la_data_in[87]
*258 la_data_in[88]
*259 la_data_in[89]
*260 la_data_in[8]
*261 la_data_in[90]
*262 la_data_in[91]
*263 la_data_in[92]
*264 la_data_in[93]
*265 la_data_in[94]
*266 la_data_in[95]
*267 la_data_in[96]
*268 la_data_in[97]
*269 la_data_in[98]
*270 la_data_in[99]
*271 la_data_in[9]
*272 la_data_out[0]
*273 la_data_out[100]
*274 la_data_out[101]
*275 la_data_out[102]
*276 la_data_out[103]
*277 la_data_out[104]
*278 la_data_out[105]
*279 la_data_out[106]
*280 la_data_out[107]
*281 la_data_out[108]
*282 la_data_out[109]
*283 la_data_out[10]
*284 la_data_out[110]
*285 la_data_out[111]
*286 la_data_out[112]
*287 la_data_out[113]
*288 la_data_out[114]
*289 la_data_out[115]
*290 la_data_out[116]
*291 la_data_out[117]
*292 la_data_out[118]
*293 la_data_out[119]
*294 la_data_out[11]
*295 la_data_out[120]
*296 la_data_out[121]
*297 la_data_out[122]
*298 la_data_out[123]
*299 la_data_out[124]
*300 la_data_out[125]
*301 la_data_out[126]
*302 la_data_out[127]
*303 la_data_out[12]
*304 la_data_out[13]
*305 la_data_out[14]
*306 la_data_out[15]
*307 la_data_out[16]
*308 la_data_out[17]
*309 la_data_out[18]
*310 la_data_out[19]
*311 la_data_out[1]
*312 la_data_out[20]
*313 la_data_out[21]
*314 la_data_out[22]
*315 la_data_out[23]
*316 la_data_out[24]
*317 la_data_out[25]
*318 la_data_out[26]
*319 la_data_out[27]
*320 la_data_out[28]
*321 la_data_out[29]
*322 la_data_out[2]
*323 la_data_out[30]
*324 la_data_out[31]
*325 la_data_out[32]
*326 la_data_out[33]
*327 la_data_out[34]
*328 la_data_out[35]
*329 la_data_out[36]
*330 la_data_out[37]
*331 la_data_out[38]
*332 la_data_out[39]
*333 la_data_out[3]
*334 la_data_out[40]
*335 la_data_out[41]
*336 la_data_out[42]
*337 la_data_out[43]
*338 la_data_out[44]
*339 la_data_out[45]
*340 la_data_out[46]
*341 la_data_out[47]
*342 la_data_out[48]
*343 la_data_out[49]
*344 la_data_out[4]
*345 la_data_out[50]
*346 la_data_out[51]
*347 la_data_out[52]
*348 la_data_out[53]
*349 la_data_out[54]
*350 la_data_out[55]
*351 la_data_out[56]
*352 la_data_out[57]
*353 la_data_out[58]
*354 la_data_out[59]
*355 la_data_out[5]
*356 la_data_out[60]
*357 la_data_out[61]
*358 la_data_out[62]
*359 la_data_out[63]
*360 la_data_out[64]
*361 la_data_out[65]
*362 la_data_out[66]
*363 la_data_out[67]
*364 la_data_out[68]
*365 la_data_out[69]
*366 la_data_out[6]
*367 la_data_out[70]
*368 la_data_out[71]
*369 la_data_out[72]
*370 la_data_out[73]
*371 la_data_out[74]
*372 la_data_out[75]
*373 la_data_out[76]
*374 la_data_out[77]
*375 la_data_out[78]
*376 la_data_out[79]
*377 la_data_out[7]
*378 la_data_out[80]
*379 la_data_out[81]
*380 la_data_out[82]
*381 la_data_out[83]
*382 la_data_out[84]
*383 la_data_out[85]
*384 la_data_out[86]
*385 la_data_out[87]
*386 la_data_out[88]
*387 la_data_out[89]
*388 la_data_out[8]
*389 la_data_out[90]
*390 la_data_out[91]
*391 la_data_out[92]
*392 la_data_out[93]
*393 la_data_out[94]
*394 la_data_out[95]
*395 la_data_out[96]
*396 la_data_out[97]
*397 la_data_out[98]
*398 la_data_out[99]
*399 la_data_out[9]
*400 la_oenb[0]
*401 la_oenb[100]
*402 la_oenb[101]
*403 la_oenb[102]
*404 la_oenb[103]
*405 la_oenb[104]
*406 la_oenb[105]
*407 la_oenb[106]
*408 la_oenb[107]
*409 la_oenb[108]
*410 la_oenb[109]
*411 la_oenb[10]
*412 la_oenb[110]
*413 la_oenb[111]
*414 la_oenb[112]
*415 la_oenb[113]
*416 la_oenb[114]
*417 la_oenb[115]
*418 la_oenb[116]
*419 la_oenb[117]
*420 la_oenb[118]
*421 la_oenb[119]
*422 la_oenb[11]
*423 la_oenb[120]
*424 la_oenb[121]
*425 la_oenb[122]
*426 la_oenb[123]
*427 la_oenb[124]
*428 la_oenb[125]
*429 la_oenb[126]
*430 la_oenb[127]
*431 la_oenb[12]
*432 la_oenb[13]
*433 la_oenb[14]
*434 la_oenb[15]
*435 la_oenb[16]
*436 la_oenb[17]
*437 la_oenb[18]
*438 la_oenb[19]
*439 la_oenb[1]
*440 la_oenb[20]
*441 la_oenb[21]
*442 la_oenb[22]
*443 la_oenb[23]
*444 la_oenb[24]
*445 la_oenb[25]
*446 la_oenb[26]
*447 la_oenb[27]
*448 la_oenb[28]
*449 la_oenb[29]
*450 la_oenb[2]
*451 la_oenb[30]
*452 la_oenb[31]
*453 la_oenb[32]
*454 la_oenb[33]
*455 la_oenb[34]
*456 la_oenb[35]
*457 la_oenb[36]
*458 la_oenb[37]
*459 la_oenb[38]
*460 la_oenb[39]
*461 la_oenb[3]
*462 la_oenb[40]
*463 la_oenb[41]
*464 la_oenb[42]
*465 la_oenb[43]
*466 la_oenb[44]
*467 la_oenb[45]
*468 la_oenb[46]
*469 la_oenb[47]
*470 la_oenb[48]
*471 la_oenb[49]
*472 la_oenb[4]
*473 la_oenb[50]
*474 la_oenb[51]
*475 la_oenb[52]
*476 la_oenb[53]
*477 la_oenb[54]
*478 la_oenb[55]
*479 la_oenb[56]
*480 la_oenb[57]
*481 la_oenb[58]
*482 la_oenb[59]
*483 la_oenb[5]
*484 la_oenb[60]
*485 la_oenb[61]
*486 la_oenb[62]
*487 la_oenb[63]
*488 la_oenb[64]
*489 la_oenb[65]
*490 la_oenb[66]
*491 la_oenb[67]
*492 la_oenb[68]
*493 la_oenb[69]
*494 la_oenb[6]
*495 la_oenb[70]
*496 la_oenb[71]
*497 la_oenb[72]
*498 la_oenb[73]
*499 la_oenb[74]
*500 la_oenb[75]
*501 la_oenb[76]
*502 la_oenb[77]
*503 la_oenb[78]
*504 la_oenb[79]
*505 la_oenb[7]
*506 la_oenb[80]
*507 la_oenb[81]
*508 la_oenb[82]
*509 la_oenb[83]
*510 la_oenb[84]
*511 la_oenb[85]
*512 la_oenb[86]
*513 la_oenb[87]
*514 la_oenb[88]
*515 la_oenb[89]
*516 la_oenb[8]
*517 la_oenb[90]
*518 la_oenb[91]
*519 la_oenb[92]
*520 la_oenb[93]
*521 la_oenb[94]
*522 la_oenb[95]
*523 la_oenb[96]
*524 la_oenb[97]
*525 la_oenb[98]
*526 la_oenb[99]
*527 la_oenb[9]
*528 user_clock2
*529 user_irq[0]
*530 user_irq[1]
*531 user_irq[2]
*540 wb_clk_i
*541 wb_rst_i
*542 wbs_ack_o
*543 wbs_adr_i[0]
*544 wbs_adr_i[10]
*545 wbs_adr_i[11]
*546 wbs_adr_i[12]
*547 wbs_adr_i[13]
*548 wbs_adr_i[14]
*549 wbs_adr_i[15]
*550 wbs_adr_i[16]
*551 wbs_adr_i[17]
*552 wbs_adr_i[18]
*553 wbs_adr_i[19]
*554 wbs_adr_i[1]
*555 wbs_adr_i[20]
*556 wbs_adr_i[21]
*557 wbs_adr_i[22]
*558 wbs_adr_i[23]
*559 wbs_adr_i[24]
*560 wbs_adr_i[25]
*561 wbs_adr_i[26]
*562 wbs_adr_i[27]
*563 wbs_adr_i[28]
*564 wbs_adr_i[29]
*565 wbs_adr_i[2]
*566 wbs_adr_i[30]
*567 wbs_adr_i[31]
*568 wbs_adr_i[3]
*569 wbs_adr_i[4]
*570 wbs_adr_i[5]
*571 wbs_adr_i[6]
*572 wbs_adr_i[7]
*573 wbs_adr_i[8]
*574 wbs_adr_i[9]
*575 wbs_cyc_i
*576 wbs_dat_i[0]
*577 wbs_dat_i[10]
*578 wbs_dat_i[11]
*579 wbs_dat_i[12]
*580 wbs_dat_i[13]
*581 wbs_dat_i[14]
*582 wbs_dat_i[15]
*583 wbs_dat_i[16]
*584 wbs_dat_i[17]
*585 wbs_dat_i[18]
*586 wbs_dat_i[19]
*587 wbs_dat_i[1]
*588 wbs_dat_i[20]
*589 wbs_dat_i[21]
*590 wbs_dat_i[22]
*591 wbs_dat_i[23]
*592 wbs_dat_i[24]
*593 wbs_dat_i[25]
*594 wbs_dat_i[26]
*595 wbs_dat_i[27]
*596 wbs_dat_i[28]
*597 wbs_dat_i[29]
*598 wbs_dat_i[2]
*599 wbs_dat_i[30]
*600 wbs_dat_i[31]
*601 wbs_dat_i[3]
*602 wbs_dat_i[4]
*603 wbs_dat_i[5]
*604 wbs_dat_i[6]
*605 wbs_dat_i[7]
*606 wbs_dat_i[8]
*607 wbs_dat_i[9]
*608 wbs_dat_o[0]
*609 wbs_dat_o[10]
*610 wbs_dat_o[11]
*611 wbs_dat_o[12]
*612 wbs_dat_o[13]
*613 wbs_dat_o[14]
*614 wbs_dat_o[15]
*615 wbs_dat_o[16]
*616 wbs_dat_o[17]
*617 wbs_dat_o[18]
*618 wbs_dat_o[19]
*619 wbs_dat_o[1]
*620 wbs_dat_o[20]
*621 wbs_dat_o[21]
*622 wbs_dat_o[22]
*623 wbs_dat_o[23]
*624 wbs_dat_o[24]
*625 wbs_dat_o[25]
*626 wbs_dat_o[26]
*627 wbs_dat_o[27]
*628 wbs_dat_o[28]
*629 wbs_dat_o[29]
*630 wbs_dat_o[2]
*631 wbs_dat_o[30]
*632 wbs_dat_o[31]
*633 wbs_dat_o[3]
*634 wbs_dat_o[4]
*635 wbs_dat_o[5]
*636 wbs_dat_o[6]
*637 wbs_dat_o[7]
*638 wbs_dat_o[8]
*639 wbs_dat_o[9]
*640 wbs_sel_i[0]
*641 wbs_sel_i[1]
*642 wbs_sel_i[2]
*643 wbs_sel_i[3]
*644 wbs_stb_i
*645 wbs_we_i
*646 phase0
*647 vco_enb
*648 vco_0
*649 vco_adc_wrapper_1

*PORTS
analog_io[0] I
analog_io[10] I
analog_io[11] I
analog_io[12] I
analog_io[13] I
analog_io[14] I
analog_io[15] I
analog_io[16] I
analog_io[17] I
analog_io[18] I
analog_io[19] I
analog_io[1] I
analog_io[20] I
analog_io[21] I
analog_io[22] I
analog_io[23] I
analog_io[24] I
analog_io[25] I
analog_io[26] I
analog_io[27] I
analog_io[28] I
analog_io[2] I
analog_io[3] I
analog_io[4] I
analog_io[5] I
analog_io[6] I
analog_io[7] I
analog_io[8] I
analog_io[9] I
io_in[0] I
io_in[10] I
io_in[11] I
io_in[12] I
io_in[13] I
io_in[14] I
io_in[15] I
io_in[16] I
io_in[17] I
io_in[18] I
io_in[19] I
io_in[1] I
io_in[20] I
io_in[21] I
io_in[22] I
io_in[23] I
io_in[24] I
io_in[25] I
io_in[26] I
io_in[27] I
io_in[28] I
io_in[29] I
io_in[2] I
io_in[30] I
io_in[31] I
io_in[32] I
io_in[33] I
io_in[34] I
io_in[35] I
io_in[36] I
io_in[37] I
io_in[3] I
io_in[4] I
io_in[5] I
io_in[6] I
io_in[7] I
io_in[8] I
io_in[9] I
io_oeb[0] O
io_oeb[10] O
io_oeb[11] O
io_oeb[12] O
io_oeb[13] O
io_oeb[14] O
io_oeb[15] O
io_oeb[16] O
io_oeb[17] O
io_oeb[18] O
io_oeb[19] O
io_oeb[1] O
io_oeb[20] O
io_oeb[21] O
io_oeb[22] O
io_oeb[23] O
io_oeb[24] O
io_oeb[25] O
io_oeb[26] O
io_oeb[27] O
io_oeb[28] O
io_oeb[29] O
io_oeb[2] O
io_oeb[30] O
io_oeb[31] O
io_oeb[32] O
io_oeb[33] O
io_oeb[34] O
io_oeb[35] O
io_oeb[36] O
io_oeb[37] O
io_oeb[3] O
io_oeb[4] O
io_oeb[5] O
io_oeb[6] O
io_oeb[7] O
io_oeb[8] O
io_oeb[9] O
io_out[0] O
io_out[10] O
io_out[11] O
io_out[12] O
io_out[13] O
io_out[14] O
io_out[15] O
io_out[16] O
io_out[17] O
io_out[18] O
io_out[19] O
io_out[1] O
io_out[20] O
io_out[21] O
io_out[22] O
io_out[23] O
io_out[24] O
io_out[25] O
io_out[26] O
io_out[27] O
io_out[28] O
io_out[29] O
io_out[2] O
io_out[30] O
io_out[31] O
io_out[32] O
io_out[33] O
io_out[34] O
io_out[35] O
io_out[36] O
io_out[37] O
io_out[3] O
io_out[4] O
io_out[5] O
io_out[6] O
io_out[7] O
io_out[8] O
io_out[9] O
la_data_in[0] I
la_data_in[100] I
la_data_in[101] I
la_data_in[102] I
la_data_in[103] I
la_data_in[104] I
la_data_in[105] I
la_data_in[106] I
la_data_in[107] I
la_data_in[108] I
la_data_in[109] I
la_data_in[10] I
la_data_in[110] I
la_data_in[111] I
la_data_in[112] I
la_data_in[113] I
la_data_in[114] I
la_data_in[115] I
la_data_in[116] I
la_data_in[117] I
la_data_in[118] I
la_data_in[119] I
la_data_in[11] I
la_data_in[120] I
la_data_in[121] I
la_data_in[122] I
la_data_in[123] I
la_data_in[124] I
la_data_in[125] I
la_data_in[126] I
la_data_in[127] I
la_data_in[12] I
la_data_in[13] I
la_data_in[14] I
la_data_in[15] I
la_data_in[16] I
la_data_in[17] I
la_data_in[18] I
la_data_in[19] I
la_data_in[1] I
la_data_in[20] I
la_data_in[21] I
la_data_in[22] I
la_data_in[23] I
la_data_in[24] I
la_data_in[25] I
la_data_in[26] I
la_data_in[27] I
la_data_in[28] I
la_data_in[29] I
la_data_in[2] I
la_data_in[30] I
la_data_in[31] I
la_data_in[32] I
la_data_in[33] I
la_data_in[34] I
la_data_in[35] I
la_data_in[36] I
la_data_in[37] I
la_data_in[38] I
la_data_in[39] I
la_data_in[3] I
la_data_in[40] I
la_data_in[41] I
la_data_in[42] I
la_data_in[43] I
la_data_in[44] I
la_data_in[45] I
la_data_in[46] I
la_data_in[47] I
la_data_in[48] I
la_data_in[49] I
la_data_in[4] I
la_data_in[50] I
la_data_in[51] I
la_data_in[52] I
la_data_in[53] I
la_data_in[54] I
la_data_in[55] I
la_data_in[56] I
la_data_in[57] I
la_data_in[58] I
la_data_in[59] I
la_data_in[5] I
la_data_in[60] I
la_data_in[61] I
la_data_in[62] I
la_data_in[63] I
la_data_in[64] I
la_data_in[65] I
la_data_in[66] I
la_data_in[67] I
la_data_in[68] I
la_data_in[69] I
la_data_in[6] I
la_data_in[70] I
la_data_in[71] I
la_data_in[72] I
la_data_in[73] I
la_data_in[74] I
la_data_in[75] I
la_data_in[76] I
la_data_in[77] I
la_data_in[78] I
la_data_in[79] I
la_data_in[7] I
la_data_in[80] I
la_data_in[81] I
la_data_in[82] I
la_data_in[83] I
la_data_in[84] I
la_data_in[85] I
la_data_in[86] I
la_data_in[87] I
la_data_in[88] I
la_data_in[89] I
la_data_in[8] I
la_data_in[90] I
la_data_in[91] I
la_data_in[92] I
la_data_in[93] I
la_data_in[94] I
la_data_in[95] I
la_data_in[96] I
la_data_in[97] I
la_data_in[98] I
la_data_in[99] I
la_data_in[9] I
la_data_out[0] O
la_data_out[100] O
la_data_out[101] O
la_data_out[102] O
la_data_out[103] O
la_data_out[104] O
la_data_out[105] O
la_data_out[106] O
la_data_out[107] O
la_data_out[108] O
la_data_out[109] O
la_data_out[10] O
la_data_out[110] O
la_data_out[111] O
la_data_out[112] O
la_data_out[113] O
la_data_out[114] O
la_data_out[115] O
la_data_out[116] O
la_data_out[117] O
la_data_out[118] O
la_data_out[119] O
la_data_out[11] O
la_data_out[120] O
la_data_out[121] O
la_data_out[122] O
la_data_out[123] O
la_data_out[124] O
la_data_out[125] O
la_data_out[126] O
la_data_out[127] O
la_data_out[12] O
la_data_out[13] O
la_data_out[14] O
la_data_out[15] O
la_data_out[16] O
la_data_out[17] O
la_data_out[18] O
la_data_out[19] O
la_data_out[1] O
la_data_out[20] O
la_data_out[21] O
la_data_out[22] O
la_data_out[23] O
la_data_out[24] O
la_data_out[25] O
la_data_out[26] O
la_data_out[27] O
la_data_out[28] O
la_data_out[29] O
la_data_out[2] O
la_data_out[30] O
la_data_out[31] O
la_data_out[32] O
la_data_out[33] O
la_data_out[34] O
la_data_out[35] O
la_data_out[36] O
la_data_out[37] O
la_data_out[38] O
la_data_out[39] O
la_data_out[3] O
la_data_out[40] O
la_data_out[41] O
la_data_out[42] O
la_data_out[43] O
la_data_out[44] O
la_data_out[45] O
la_data_out[46] O
la_data_out[47] O
la_data_out[48] O
la_data_out[49] O
la_data_out[4] O
la_data_out[50] O
la_data_out[51] O
la_data_out[52] O
la_data_out[53] O
la_data_out[54] O
la_data_out[55] O
la_data_out[56] O
la_data_out[57] O
la_data_out[58] O
la_data_out[59] O
la_data_out[5] O
la_data_out[60] O
la_data_out[61] O
la_data_out[62] O
la_data_out[63] O
la_data_out[64] O
la_data_out[65] O
la_data_out[66] O
la_data_out[67] O
la_data_out[68] O
la_data_out[69] O
la_data_out[6] O
la_data_out[70] O
la_data_out[71] O
la_data_out[72] O
la_data_out[73] O
la_data_out[74] O
la_data_out[75] O
la_data_out[76] O
la_data_out[77] O
la_data_out[78] O
la_data_out[79] O
la_data_out[7] O
la_data_out[80] O
la_data_out[81] O
la_data_out[82] O
la_data_out[83] O
la_data_out[84] O
la_data_out[85] O
la_data_out[86] O
la_data_out[87] O
la_data_out[88] O
la_data_out[89] O
la_data_out[8] O
la_data_out[90] O
la_data_out[91] O
la_data_out[92] O
la_data_out[93] O
la_data_out[94] O
la_data_out[95] O
la_data_out[96] O
la_data_out[97] O
la_data_out[98] O
la_data_out[99] O
la_data_out[9] O
la_oenb[0] I
la_oenb[100] I
la_oenb[101] I
la_oenb[102] I
la_oenb[103] I
la_oenb[104] I
la_oenb[105] I
la_oenb[106] I
la_oenb[107] I
la_oenb[108] I
la_oenb[109] I
la_oenb[10] I
la_oenb[110] I
la_oenb[111] I
la_oenb[112] I
la_oenb[113] I
la_oenb[114] I
la_oenb[115] I
la_oenb[116] I
la_oenb[117] I
la_oenb[118] I
la_oenb[119] I
la_oenb[11] I
la_oenb[120] I
la_oenb[121] I
la_oenb[122] I
la_oenb[123] I
la_oenb[124] I
la_oenb[125] I
la_oenb[126] I
la_oenb[127] I
la_oenb[12] I
la_oenb[13] I
la_oenb[14] I
la_oenb[15] I
la_oenb[16] I
la_oenb[17] I
la_oenb[18] I
la_oenb[19] I
la_oenb[1] I
la_oenb[20] I
la_oenb[21] I
la_oenb[22] I
la_oenb[23] I
la_oenb[24] I
la_oenb[25] I
la_oenb[26] I
la_oenb[27] I
la_oenb[28] I
la_oenb[29] I
la_oenb[2] I
la_oenb[30] I
la_oenb[31] I
la_oenb[32] I
la_oenb[33] I
la_oenb[34] I
la_oenb[35] I
la_oenb[36] I
la_oenb[37] I
la_oenb[38] I
la_oenb[39] I
la_oenb[3] I
la_oenb[40] I
la_oenb[41] I
la_oenb[42] I
la_oenb[43] I
la_oenb[44] I
la_oenb[45] I
la_oenb[46] I
la_oenb[47] I
la_oenb[48] I
la_oenb[49] I
la_oenb[4] I
la_oenb[50] I
la_oenb[51] I
la_oenb[52] I
la_oenb[53] I
la_oenb[54] I
la_oenb[55] I
la_oenb[56] I
la_oenb[57] I
la_oenb[58] I
la_oenb[59] I
la_oenb[5] I
la_oenb[60] I
la_oenb[61] I
la_oenb[62] I
la_oenb[63] I
la_oenb[64] I
la_oenb[65] I
la_oenb[66] I
la_oenb[67] I
la_oenb[68] I
la_oenb[69] I
la_oenb[6] I
la_oenb[70] I
la_oenb[71] I
la_oenb[72] I
la_oenb[73] I
la_oenb[74] I
la_oenb[75] I
la_oenb[76] I
la_oenb[77] I
la_oenb[78] I
la_oenb[79] I
la_oenb[7] I
la_oenb[80] I
la_oenb[81] I
la_oenb[82] I
la_oenb[83] I
la_oenb[84] I
la_oenb[85] I
la_oenb[86] I
la_oenb[87] I
la_oenb[88] I
la_oenb[89] I
la_oenb[8] I
la_oenb[90] I
la_oenb[91] I
la_oenb[92] I
la_oenb[93] I
la_oenb[94] I
la_oenb[95] I
la_oenb[96] I
la_oenb[97] I
la_oenb[98] I
la_oenb[99] I
la_oenb[9] I
user_clock2 I
user_irq[0] O
user_irq[1] O
user_irq[2] O
wb_clk_i I
wb_rst_i I
wbs_ack_o O
wbs_adr_i[0] I
wbs_adr_i[10] I
wbs_adr_i[11] I
wbs_adr_i[12] I
wbs_adr_i[13] I
wbs_adr_i[14] I
wbs_adr_i[15] I
wbs_adr_i[16] I
wbs_adr_i[17] I
wbs_adr_i[18] I
wbs_adr_i[19] I
wbs_adr_i[1] I
wbs_adr_i[20] I
wbs_adr_i[21] I
wbs_adr_i[22] I
wbs_adr_i[23] I
wbs_adr_i[24] I
wbs_adr_i[25] I
wbs_adr_i[26] I
wbs_adr_i[27] I
wbs_adr_i[28] I
wbs_adr_i[29] I
wbs_adr_i[2] I
wbs_adr_i[30] I
wbs_adr_i[31] I
wbs_adr_i[3] I
wbs_adr_i[4] I
wbs_adr_i[5] I
wbs_adr_i[6] I
wbs_adr_i[7] I
wbs_adr_i[8] I
wbs_adr_i[9] I
wbs_cyc_i I
wbs_dat_i[0] I
wbs_dat_i[10] I
wbs_dat_i[11] I
wbs_dat_i[12] I
wbs_dat_i[13] I
wbs_dat_i[14] I
wbs_dat_i[15] I
wbs_dat_i[16] I
wbs_dat_i[17] I
wbs_dat_i[18] I
wbs_dat_i[19] I
wbs_dat_i[1] I
wbs_dat_i[20] I
wbs_dat_i[21] I
wbs_dat_i[22] I
wbs_dat_i[23] I
wbs_dat_i[24] I
wbs_dat_i[25] I
wbs_dat_i[26] I
wbs_dat_i[27] I
wbs_dat_i[28] I
wbs_dat_i[29] I
wbs_dat_i[2] I
wbs_dat_i[30] I
wbs_dat_i[31] I
wbs_dat_i[3] I
wbs_dat_i[4] I
wbs_dat_i[5] I
wbs_dat_i[6] I
wbs_dat_i[7] I
wbs_dat_i[8] I
wbs_dat_i[9] I
wbs_dat_o[0] O
wbs_dat_o[10] O
wbs_dat_o[11] O
wbs_dat_o[12] O
wbs_dat_o[13] O
wbs_dat_o[14] O
wbs_dat_o[15] O
wbs_dat_o[16] O
wbs_dat_o[17] O
wbs_dat_o[18] O
wbs_dat_o[19] O
wbs_dat_o[1] O
wbs_dat_o[20] O
wbs_dat_o[21] O
wbs_dat_o[22] O
wbs_dat_o[23] O
wbs_dat_o[24] O
wbs_dat_o[25] O
wbs_dat_o[26] O
wbs_dat_o[27] O
wbs_dat_o[28] O
wbs_dat_o[29] O
wbs_dat_o[2] O
wbs_dat_o[30] O
wbs_dat_o[31] O
wbs_dat_o[3] O
wbs_dat_o[4] O
wbs_dat_o[5] O
wbs_dat_o[6] O
wbs_dat_o[7] O
wbs_dat_o[8] O
wbs_dat_o[9] O
wbs_sel_i[0] I
wbs_sel_i[1] I
wbs_sel_i[2] I
wbs_sel_i[3] I
wbs_stb_i I
wbs_we_i I

*D_NET *540 0.354989
*CONN
*P wb_clk_i I
*I *649:wb_clk_i I *D vco_adc_wrapper
*I *648:clk I *D vco_adc2
*CAP
1 wb_clk_i 0.000643272
2 *649:wb_clk_i 0.00141886
3 *648:clk 0.106017
4 *540:11 0.106017
5 *540:9 0.0036571
6 *540:7 0.00288151
7 *648:clk *647:15 0.1322
8 *649:wb_clk_i *649:wbs_we_i 0.00123535
9 *540:9 *649:wbs_we_i 0.000918684
*RES
1 wb_clk_i *540:7 13.655 
2 *540:7 *540:9 39.435 
3 *540:9 *540:11 2 
4 *540:11 *648:clk 2486.43 
5 *540:9 *649:wb_clk_i 27.0575 
*END

*D_NET *541 0.0147609
*CONN
*P wb_rst_i I
*I *649:wb_rst_i I *D vco_adc_wrapper
*CAP
1 wb_rst_i 0.00384804
2 *649:wb_rst_i 0.00384804
3 *649:wb_rst_i wbs_ack_o 0.000145355
4 *649:wb_rst_i wbs_dat_o[2] 9.55843e-05
5 *649:wb_rst_i *649:wbs_cyc_i 0.000290994
6 *649:wb_rst_i *649:wbs_dat_i[0] 0.00451903
7 *649:wb_rst_i *649:wbs_stb_i 0.000901351
8 *649:wb_rst_i *598:11 0.000270374
9 *649:wb_rst_i *619:11 0.000842144
*RES
1 wb_rst_i *649:wb_rst_i 25.844 
*END

*D_NET *542 0.0159037
*CONN
*P wbs_ack_o O
*I *649:wbs_ack_o O *D vco_adc_wrapper
*CAP
1 wbs_ack_o 0.00259302
2 *649:wbs_ack_o 0.00259302
3 wbs_ack_o wbs_dat_o[0] 0.00174308
4 wbs_ack_o wbs_dat_o[2] 0.000682108
5 wbs_ack_o *649:wbs_adr_i[3] 0.000337126
6 wbs_ack_o *649:wbs_cyc_i 0.00781003
7 wbs_ack_o *649:wbs_dat_i[3] 0
8 *649:wb_rst_i wbs_ack_o 0.000145355
*RES
1 *649:wbs_ack_o wbs_ack_o 24.1432 
*END

*D_NET *543 0.0218109
*CONN
*P wbs_adr_i[0] I
*I *649:wbs_adr_i[0] I *D vco_adc_wrapper
*CAP
1 wbs_adr_i[0] 0.00323499
2 *649:wbs_adr_i[0] 0.00323499
3 *649:wbs_adr_i[0] *649:wbs_adr_i[1] 0.00798462
4 *649:wbs_adr_i[0] *649:wbs_adr_i[2] 0.00603609
5 *649:wbs_adr_i[0] *649:wbs_sel_i[1] 0.000252768
6 *649:wbs_adr_i[0] *649:wbs_we_i 0.00106747
*RES
1 wbs_adr_i[0] *649:wbs_adr_i[0] 26.3524 
*END

*D_NET *544 0.0502659
*CONN
*P wbs_adr_i[10] I
*I *649:wbs_adr_i[10] I *D vco_adc_wrapper
*CAP
1 wbs_adr_i[10] 0.00258416
2 *649:wbs_adr_i[10] 0.00523747
3 *544:15 0.00782162
4 *649:wbs_adr_i[10] *649:wbs_dat_i[4] 0
5 *649:wbs_adr_i[10] *649:wbs_dat_i[5] 0
6 *649:wbs_adr_i[10] *577:11 0.00208816
7 *649:wbs_adr_i[10] *585:9 0.0137824
8 *649:wbs_adr_i[10] *612:11 0
9 *649:wbs_adr_i[10] *613:19 0.000232426
10 *649:wbs_adr_i[10] *614:13 0.00450523
11 *649:wbs_adr_i[10] *615:11 0
12 *544:15 wbs_dat_o[13] 0.00165996
13 *544:15 wbs_dat_o[15] 0.000369446
14 *544:15 wbs_dat_o[9] 0.00149489
15 *544:15 *649:wbs_adr_i[2] 0.000850882
16 *544:15 *649:wbs_adr_i[5] 0.0091168
17 *544:15 *649:wbs_sel_i[1] 1.97029e-06
18 *544:15 *547:19 0.000349277
19 *544:15 *550:7 0.000171203
*RES
1 wbs_adr_i[10] *544:15 28.2986 
2 *544:15 *649:wbs_adr_i[10] 32.5821 
*END

*D_NET *545 0.0635606
*CONN
*P wbs_adr_i[11] I
*I *649:wbs_adr_i[11] I *D vco_adc_wrapper
*CAP
1 wbs_adr_i[11] 0.000741673
2 *649:wbs_adr_i[11] 0.00541726
3 *545:7 0.00615893
4 *649:wbs_adr_i[11] wbs_dat_o[28] 0.000270015
5 *649:wbs_adr_i[11] wbs_dat_o[9] 0.0120042
6 *649:wbs_adr_i[11] *649:wbs_adr_i[12] 0.000229732
7 *649:wbs_adr_i[11] *649:wbs_adr_i[3] 0.000574085
8 *649:wbs_adr_i[11] *546:15 0.00106906
9 *649:wbs_adr_i[11] *547:19 0.0187556
10 *649:wbs_adr_i[11] *548:9 0.00104929
11 *649:wbs_adr_i[11] *549:9 0.00346802
12 *649:wbs_adr_i[11] *552:13 0.000122383
13 *649:wbs_adr_i[11] *580:15 2.17773e-05
14 *649:wbs_adr_i[11] *586:9 0.00804408
15 *649:wbs_adr_i[11] *594:9 0.00452471
16 *649:wbs_adr_i[11] *625:19 0.00110973
17 *545:7 *649:wbs_dat_i[2] 0
*RES
1 wbs_adr_i[11] *545:7 11.7725 
2 *545:7 *649:wbs_adr_i[11] 41.8199 
*END

*D_NET *546 0.054655
*CONN
*P wbs_adr_i[12] I
*I *649:wbs_adr_i[12] I *D vco_adc_wrapper
*CAP
1 wbs_adr_i[12] 0.0013941
2 *649:wbs_adr_i[12] 0.00608351
3 *546:15 0.00747761
4 *649:wbs_adr_i[12] *649:wbs_dat_i[13] 0.0103709
5 *649:wbs_adr_i[12] *547:19 0.0187613
6 *649:wbs_adr_i[12] *594:9 0.00741329
7 *546:15 wbs_dat_o[2] 0
8 *546:15 *649:wbs_adr_i[3] 0.00173671
9 *546:15 *649:wbs_dat_i[13] 9.95501e-05
10 *546:15 *580:15 1.91843e-05
11 *649:wbs_adr_i[11] *649:wbs_adr_i[12] 0.000229732
12 *649:wbs_adr_i[11] *546:15 0.00106906
*RES
1 wbs_adr_i[12] *546:15 16.4063 
2 *546:15 *649:wbs_adr_i[12] 40.8003 
*END

*D_NET *547 0.0767799
*CONN
*P wbs_adr_i[13] I
*I *649:wbs_adr_i[13] I *D vco_adc_wrapper
*CAP
1 wbs_adr_i[13] 0.00384223
2 *649:wbs_adr_i[13] 0.00347317
3 *547:19 0.0073154
4 *649:wbs_adr_i[13] wbs_dat_o[21] 0.000164676
5 *649:wbs_adr_i[13] *649:wbs_dat_i[9] 0.000272358
6 *649:wbs_adr_i[13] *561:7 0.000254456
7 *649:wbs_adr_i[13] *612:11 0.0109291
8 *649:wbs_adr_i[13] *615:11 0.00636928
9 *649:wbs_adr_i[13] *622:11 0.00186596
10 *649:wbs_adr_i[13] *623:11 0.00200809
11 *547:19 wbs_dat_o[9] 0.000633907
12 *547:19 *548:9 0.00173616
13 *547:19 *580:15 4.88842e-05
14 *649:wbs_adr_i[11] *547:19 0.0187556
15 *649:wbs_adr_i[12] *547:19 0.0187613
16 *544:15 *547:19 0.000349277
*RES
1 wbs_adr_i[13] *547:19 43.2716 
2 *547:19 *649:wbs_adr_i[13] 37.4013 
*END

*D_NET *548 0.0665259
*CONN
*P wbs_adr_i[14] I
*I *649:wbs_adr_i[14] I *D vco_adc_wrapper
*CAP
1 wbs_adr_i[14] 0.00073886
2 *649:wbs_adr_i[14] 0.000174171
3 *548:9 0.00761614
4 *548:7 0.00818082
5 *548:9 wbs_dat_o[9] 0.000344321
6 *548:9 *549:9 0.0291134
7 *548:9 *586:9 0.00219096
8 *548:9 *599:9 0.000145125
9 *548:9 *625:19 0.0136986
10 *548:9 *631:19 0.001538
11 *649:wbs_adr_i[11] *548:9 0.00104929
12 *547:19 *548:9 0.00173616
*RES
1 wbs_adr_i[14] *548:7 13.145 
2 *548:7 *548:9 280.935 
3 *548:9 *649:wbs_adr_i[14] 3.4925 
*END

*D_NET *549 0.0796024
*CONN
*P wbs_adr_i[15] I
*I *649:wbs_adr_i[15] I *D vco_adc_wrapper
*CAP
1 wbs_adr_i[15] 0.000538725
2 *649:wbs_adr_i[15] 0.000184489
3 *549:9 0.00471274
4 *549:7 0.00506698
5 *549:7 *649:wbs_sel_i[3] 0.000758903
6 *549:9 wbs_dat_o[9] 0.00165074
7 *549:9 *550:9 0
8 *549:9 *583:9 0.0299764
9 *549:9 *586:9 0.000303329
10 *549:9 *599:9 0.00012905
11 *549:9 *625:19 0.00165613
12 *549:9 *631:19 0.00204349
13 *649:wbs_adr_i[11] *549:9 0.00346802
14 *548:9 *549:9 0.0291134
*RES
1 wbs_adr_i[15] *549:7 12.89 
2 *549:7 *549:9 293.7 
3 *549:9 *649:wbs_adr_i[15] 3.4925 
*END

*D_NET *550 0.081626
*CONN
*P wbs_adr_i[16] I
*I *649:wbs_adr_i[16] I *D vco_adc_wrapper
*CAP
1 wbs_adr_i[16] 0.000546485
2 *649:wbs_adr_i[16] 0.000286835
3 *550:9 0.00553974
4 *550:7 0.00579939
5 *550:9 wbs_dat_o[15] 0.000101386
6 *550:9 *649:wbs_adr_i[6] 0.000408939
7 *550:9 *551:13 0.000102874
8 *550:9 *555:9 0.00595519
9 *550:9 *578:9 0
10 *550:9 *583:9 0
11 *550:9 *584:9 0.0318989
12 *550:9 *616:9 0.0308151
13 *544:15 *550:7 0.000171203
14 *549:9 *550:9 0
*RES
1 wbs_adr_i[16] *550:7 11.105 
2 *550:7 *550:9 306.12 
3 *550:9 *649:wbs_adr_i[16] 4.5125 
*END

*D_NET *551 0.097644
*CONN
*P wbs_adr_i[17] I
*I *649:wbs_adr_i[17] I *D vco_adc_wrapper
*CAP
1 wbs_adr_i[17] 0.00113732
2 *649:wbs_adr_i[17] 8.99264e-05
3 *551:13 0.00557051
4 *551:11 0.00661791
5 *551:11 wbs_dat_o[15] 0.001922
6 *551:11 wbs_dat_o[9] 0.000807785
7 *551:11 *649:wbs_adr_i[6] 0.000394052
8 *551:11 *552:11 0.00136725
9 *551:11 *634:9 0.000730932
10 *551:13 *649:wbs_adr_i[6] 0.000599155
11 *551:13 *649:wbs_adr_i[7] 0.000280626
12 *551:13 *552:11 2.64679e-05
13 *551:13 *552:13 0.0326894
14 *551:13 *555:9 0.0322548
15 *551:13 *584:9 0.000110612
16 *551:13 *616:9 0.00628656
17 *551:13 *618:9 0.00665582
18 *550:9 *551:13 0.000102874
*RES
1 wbs_adr_i[17] *551:11 14.6872 
2 *551:11 *551:13 49.7977 
3 *551:13 *649:wbs_adr_i[17] 1.5725 
*END

*D_NET *552 0.100837
*CONN
*P wbs_adr_i[18] I
*I *649:wbs_adr_i[18] I *D vco_adc_wrapper
*CAP
1 wbs_adr_i[18] 0.00110395
2 *649:wbs_adr_i[18] 4.76574e-05
3 *552:13 0.00642253
4 *552:11 0.00747883
5 *552:11 wbs_dat_o[9] 0.00142291
6 *552:11 *583:9 0.000342517
7 *552:11 *616:9 0.00012677
8 *552:13 wbs_dat_o[9] 0.000114605
9 *552:13 *555:9 0.001763
10 *552:13 *586:9 0.0350053
11 *552:13 *588:9 0.00610912
12 *552:13 *590:9 0.00604741
13 *552:13 *616:9 0.000230463
14 *552:13 *618:9 0.000416804
15 *649:wbs_adr_i[11] *552:13 0.000122383
16 *551:11 *552:11 0.00136725
17 *551:13 *552:11 2.64679e-05
18 *551:13 *552:13 0.0326894
*RES
1 wbs_adr_i[18] *552:11 13.0414 
2 *552:11 *552:13 54.0512 
3 *552:13 *649:wbs_adr_i[18] 1.0625 
*END

*D_NET *553 0.090954
*CONN
*P wbs_adr_i[19] I
*I *649:wbs_adr_i[19] I *D vco_adc_wrapper
*CAP
1 wbs_adr_i[19] 0.00047918
2 *649:wbs_adr_i[19] 0.000270844
3 *553:9 0.00584345
4 *553:7 0.00605178
5 *553:7 *635:9 0.000241014
6 *553:7 *639:17 0
7 *553:9 *555:9 0.000516904
8 *553:9 *556:9 0.0351093
9 *553:9 *557:9 0.00736575
10 *553:9 *578:9 0
11 *553:9 *584:9 0.0333728
12 *553:9 *616:9 0.000428853
13 *553:9 *618:9 0.00127411
*RES
1 wbs_adr_i[19] *553:7 10.595 
2 *553:7 *553:9 344.07 
3 *553:9 *649:wbs_adr_i[19] 5.0225 
*END

*D_NET *554 0.0248597
*CONN
*P wbs_adr_i[1] I
*I *649:wbs_adr_i[1] I *D vco_adc_wrapper
*CAP
1 wbs_adr_i[1] 0.00386757
2 *649:wbs_adr_i[1] 0.00386757
3 *649:wbs_adr_i[1] *649:wbs_adr_i[2] 0.00210681
4 *649:wbs_adr_i[1] *649:wbs_adr_i[3] 0
5 *649:wbs_adr_i[1] *649:wbs_we_i 0.00703315
6 *649:wbs_adr_i[0] *649:wbs_adr_i[1] 0.00798462
*RES
1 wbs_adr_i[1] *649:wbs_adr_i[1] 29.7175 
*END

*D_NET *555 0.104688
*CONN
*P wbs_adr_i[20] I
*I *649:wbs_adr_i[20] I *D vco_adc_wrapper
*CAP
1 wbs_adr_i[20] 0.000596419
2 *649:wbs_adr_i[20] 0.000236593
3 *555:9 0.0062964
4 *555:7 0.00665622
5 *555:7 *649:wbs_dat_i[6] 0
6 *555:9 *649:wbs_adr_i[7] 0.001356
7 *555:9 *649:wbs_adr_i[8] 0.000319461
8 *555:9 *556:9 0.000331855
9 *555:9 *557:9 0.0380331
10 *555:9 *584:9 0.00631194
11 *555:9 *586:9 0.00173307
12 *555:9 *588:9 0.000499366
13 *555:9 *590:9 0.000267463
14 *555:9 *618:9 0.000945892
15 *555:9 *631:19 0.000614455
16 *550:9 *555:9 0.00595519
17 *551:13 *555:9 0.0322548
18 *552:13 *555:9 0.001763
19 *553:9 *555:9 0.000516904
*RES
1 wbs_adr_i[20] *555:7 9.2225 
2 *555:7 *555:9 60.2275 
3 *555:9 *649:wbs_adr_i[20] 3.395 
*END

*D_NET *556 0.0979883
*CONN
*P wbs_adr_i[21] I
*I *649:wbs_adr_i[21] I *D vco_adc_wrapper
*CAP
1 wbs_adr_i[21] 0.000567662
2 *649:wbs_adr_i[21] 0.000236771
3 *556:9 0.00637208
4 *556:7 0.00670297
5 *556:7 wbs_dat_o[6] 0
6 *556:9 *557:9 0.00801046
7 *556:9 *578:9 0
8 *556:9 *588:9 0
9 *556:9 *589:9 0.0403864
10 *556:9 *590:9 0
11 *556:9 *618:9 0.000270817
12 *553:9 *556:9 0.0351093
13 *555:9 *556:9 0.000331855
*RES
1 wbs_adr_i[21] *556:7 10.34 
2 *556:7 *556:9 368.91 
3 *556:9 *649:wbs_adr_i[21] 5.2775 
*END

*D_NET *557 0.112828
*CONN
*P wbs_adr_i[22] I
*I *649:wbs_adr_i[22] I *D vco_adc_wrapper
*CAP
1 wbs_adr_i[22] 0.000561664
2 *649:wbs_adr_i[22] 0.000242375
3 *557:9 0.00672342
4 *557:7 0.00704271
5 *557:7 *649:wbs_dat_i[7] 0
6 *557:9 *649:wbs_adr_i[8] 0.00130576
7 *557:9 *649:wbs_adr_i[9] 0.000354358
8 *557:9 *558:9 0.000331855
9 *557:9 *559:9 0.0409284
10 *557:9 *589:9 0.000516904
11 *557:9 *631:19 0.00141145
12 *553:9 *557:9 0.00736575
13 *555:9 *557:9 0.0380331
14 *556:9 *557:9 0.00801046
*RES
1 wbs_adr_i[22] *557:7 8.7125 
2 *557:7 *557:9 64.4809 
3 *557:9 *649:wbs_adr_i[22] 3.905 
*END

*D_NET *558 0.10541
*CONN
*P wbs_adr_i[23] I
*I *649:wbs_adr_i[23] I *D vco_adc_wrapper
*CAP
1 wbs_adr_i[23] 0.000530454
2 *649:wbs_adr_i[23] 0.00023891
3 *558:9 0.00658377
4 *558:7 0.00687531
5 *558:7 *637:9 0
6 *558:9 *559:9 0.00869496
7 *558:9 *578:9 6.39043e-05
8 *558:9 *589:9 0.0389411
9 *558:9 *590:9 0
10 *558:9 *591:9 0.0431494
11 *558:9 *592:9 0
12 *557:9 *558:9 0.000331855
*RES
1 wbs_adr_i[23] *558:7 9.83 
2 *558:7 *558:9 394.095 
3 *558:9 *649:wbs_adr_i[23] 5.7875 
*END

*D_NET *559 0.120651
*CONN
*P wbs_adr_i[24] I
*I *649:wbs_adr_i[24] I *D vco_adc_wrapper
*CAP
1 wbs_adr_i[24] 0.000527536
2 *649:wbs_adr_i[24] 0.000258716
3 *559:9 0.00771547
4 *559:7 0.00798429
5 *559:7 *649:wbs_dat_i[8] 0
6 *559:9 *649:wbs_adr_i[9] 0.00126265
7 *559:9 *560:9 0.000239662
8 *559:9 *561:9 0.0438509
9 *559:9 *577:11 0.000385319
10 *559:9 *589:9 0.00837069
11 *559:9 *591:9 0.0004324
12 *559:9 *631:19 0
13 *557:9 *559:9 0.0409284
14 *558:9 *559:9 0.00869496
*RES
1 wbs_adr_i[24] *559:7 8.2025 
2 *559:7 *559:9 68.7344 
3 *559:9 *649:wbs_adr_i[24] 4.415 
*END

*D_NET *560 0.111159
*CONN
*P wbs_adr_i[25] I
*I *649:wbs_adr_i[25] I *D vco_adc_wrapper
*CAP
1 wbs_adr_i[25] 0.000499282
2 *649:wbs_adr_i[25] 0.000254373
3 *560:9 0.0069733
4 *560:7 0.00721821
5 *560:7 *638:9 0
6 *560:9 *561:9 0.00949776
7 *560:9 *562:9 0.0435172
8 *560:9 *578:9 0.00121683
9 *560:9 *591:9 0.0417424
10 *560:9 *625:13 0
11 *559:9 *560:9 0.000239662
*RES
1 wbs_adr_i[25] *560:7 9.32 
2 *560:7 *560:9 419.28 
3 *560:9 *649:wbs_adr_i[25] 6.2975 
*END

*D_NET *561 0.128638
*CONN
*P wbs_adr_i[26] I
*I *649:wbs_adr_i[26] I *D vco_adc_wrapper
*CAP
1 wbs_adr_i[26] 0.00038373
2 *649:wbs_adr_i[26] 0.000253079
3 *561:9 0.00751078
4 *561:7 0.00764143
5 *561:7 wbs_dat_o[21] 3.97593e-05
6 *561:9 *562:9 0.000305663
7 *561:9 *563:9 0.0467733
8 *561:9 *577:11 0.00173863
9 *561:9 *591:9 0.00924655
10 *561:9 *625:13 0.000123021
11 *561:9 *631:17 0.00101847
12 *561:9 *631:19 0
13 *649:wbs_adr_i[13] *561:7 0.000254456
14 *559:9 *561:9 0.0438509
15 *560:9 *561:9 0.00949776
*RES
1 wbs_adr_i[26] *561:7 7.6925 
2 *561:7 *561:9 72.9879 
3 *561:9 *649:wbs_adr_i[26] 4.925 
*END

*D_NET *562 0.118367
*CONN
*P wbs_adr_i[27] I
*I *649:wbs_adr_i[27] I *D vco_adc_wrapper
*CAP
1 wbs_adr_i[27] 0.000491313
2 *649:wbs_adr_i[27] 0.000265053
3 *562:9 0.00747896
4 *562:7 0.00770522
5 *562:9 *563:9 0.0111457
6 *562:9 *566:9 0.0448272
7 *562:9 *578:9 0.00262075
8 *562:9 *582:9 9.80032e-06
9 *562:9 *625:13 0
10 *560:9 *562:9 0.0435172
11 *561:9 *562:9 0.000305663
*RES
1 wbs_adr_i[27] *562:7 9.065 
2 *562:7 *562:9 444.465 
3 *562:9 *649:wbs_adr_i[27] 6.5525 
*END

*D_NET *563 0.139091
*CONN
*P wbs_adr_i[28] I
*I *649:wbs_adr_i[28] I *D vco_adc_wrapper
*CAP
1 wbs_adr_i[28] 0.00046253
2 *649:wbs_adr_i[28] 0.000292009
3 *563:9 0.00700837
4 *563:7 0.00717889
5 *563:7 *649:wbs_dat_i[10] 2.15142e-05
6 *563:9 *564:9 0.0512129
7 *563:9 *566:9 0.0101316
8 *563:9 *577:11 0.000100383
9 *563:9 *578:9 0.000194339
10 *563:9 *582:9 0.000212024
11 *563:9 *585:9 0.000845939
12 *563:9 *631:17 0.00351108
13 *561:9 *563:9 0.0467733
14 *562:9 *563:9 0.0111457
*RES
1 wbs_adr_i[28] *563:7 7.1825 
2 *563:7 *563:9 77.2413 
3 *563:9 *649:wbs_adr_i[28] 5.435 
*END

*D_NET *564 0.127017
*CONN
*P wbs_adr_i[29] I
*I *649:wbs_adr_i[29] I *D vco_adc_wrapper
*CAP
1 wbs_adr_i[29] 0.000428494
2 *649:wbs_adr_i[29] 0.000324036
3 *564:9 0.00995125
4 *564:7 0.0100557
5 *564:9 *566:9 0.000204061
6 *564:9 *567:9 0.0209086
7 *564:9 *578:9 0.00034871
8 *564:9 *582:9 0.00247141
9 *564:9 *585:9 0.0224396
10 *564:9 *628:11 0.00737432
11 *564:9 *631:17 0.00129752
12 *563:9 *564:9 0.0512129
*RES
1 wbs_adr_i[29] *564:7 6.6725 
2 *564:7 *564:9 79.3389 
3 *564:9 *649:wbs_adr_i[29] 5.945 
*END

*D_NET *565 0.0298781
*CONN
*P wbs_adr_i[2] I
*I *649:wbs_adr_i[2] I *D vco_adc_wrapper
*CAP
1 wbs_adr_i[2] 0.00366906
2 *649:wbs_adr_i[2] 0.00366906
3 *649:wbs_adr_i[2] wbs_dat_o[9] 0.000736402
4 *649:wbs_adr_i[2] *649:wbs_adr_i[5] 6.62634e-05
5 *649:wbs_adr_i[2] *649:wbs_sel_i[1] 0.0127436
6 *649:wbs_adr_i[0] *649:wbs_adr_i[2] 0.00603609
7 *649:wbs_adr_i[1] *649:wbs_adr_i[2] 0.00210681
8 *544:15 *649:wbs_adr_i[2] 0.000850882
*RES
1 wbs_adr_i[2] *649:wbs_adr_i[2] 32.1151 
*END

*D_NET *566 0.126305
*CONN
*P wbs_adr_i[30] I
*I *649:wbs_adr_i[30] I *D vco_adc_wrapper
*CAP
1 wbs_adr_i[30] 0.000470519
2 *649:wbs_adr_i[30] 0.000279108
3 *566:9 0.00849399
4 *566:7 0.0086854
5 *566:7 wbs_dat_o[26] 0
6 *566:7 *649:wbs_dat_i[11] 2.85364e-05
7 *566:9 *567:9 0.0519799
8 *566:9 *582:9 0.000859666
9 *566:9 *631:17 0.000344881
10 *562:9 *566:9 0.0448272
11 *563:9 *566:9 0.0101316
12 *564:9 *566:9 0.000204061
*RES
1 wbs_adr_i[30] *566:7 8.81 
2 *566:7 *566:9 482.07 
3 *566:9 *649:wbs_adr_i[30] 6.8075 
*END

*D_NET *567 0.116867
*CONN
*P wbs_adr_i[31] I
*I *649:wbs_adr_i[31] I *D vco_adc_wrapper
*CAP
1 wbs_adr_i[31] 0.000465474
2 *649:wbs_adr_i[31] 0.000291226
3 *567:9 0.0165318
4 *567:7 0.0167061
5 *567:9 *582:9 0.00998398
6 *564:9 *567:9 0.0209086
7 *566:9 *567:9 0.0519799
*RES
1 wbs_adr_i[31] *567:7 8.555 
2 *567:7 *567:9 494.835 
3 *567:9 *649:wbs_adr_i[31] 7.0625 
*END

*D_NET *568 0.0216584
*CONN
*P wbs_adr_i[3] I
*I *649:wbs_adr_i[3] I *D vco_adc_wrapper
*CAP
1 wbs_adr_i[3] 0.0086111
2 *649:wbs_adr_i[3] 0.0086111
3 *649:wbs_adr_i[3] wbs_dat_o[9] 0.000535145
4 *649:wbs_adr_i[3] *649:wbs_we_i 0.00125309
5 wbs_ack_o *649:wbs_adr_i[3] 0.000337126
6 *649:wbs_adr_i[11] *649:wbs_adr_i[3] 0.000574085
7 *649:wbs_adr_i[1] *649:wbs_adr_i[3] 0
8 *546:15 *649:wbs_adr_i[3] 0.00173671
*RES
1 wbs_adr_i[3] *649:wbs_adr_i[3] 37.482 
*END

*D_NET *569 0.0272319
*CONN
*P wbs_adr_i[4] I
*I *649:wbs_adr_i[4] I *D vco_adc_wrapper
*CAP
1 wbs_adr_i[4] 0.00766055
2 *649:wbs_adr_i[4] 0.00766055
3 *649:wbs_adr_i[4] wbs_dat_o[0] 0
4 *649:wbs_adr_i[4] wbs_dat_o[15] 0.000370267
5 *649:wbs_adr_i[4] wbs_dat_o[2] 0
6 *649:wbs_adr_i[4] wbs_dat_o[3] 0
7 *649:wbs_adr_i[4] *649:wbs_adr_i[5] 0
8 *649:wbs_adr_i[4] *649:wbs_adr_i[6] 0.000371125
9 *649:wbs_adr_i[4] *649:wbs_adr_i[7] 0.000460372
10 *649:wbs_adr_i[4] *649:wbs_adr_i[8] 0.000672628
11 *649:wbs_adr_i[4] *649:wbs_adr_i[9] 0.00118325
12 *649:wbs_adr_i[4] *649:wbs_dat_i[3] 0
13 *649:wbs_adr_i[4] *649:wbs_dat_i[4] 0
14 *649:wbs_adr_i[4] *649:wbs_sel_i[1] 0
15 *649:wbs_adr_i[4] *649:wbs_stb_i 0.000269498
16 *649:wbs_adr_i[4] *577:11 0.00819422
17 *649:wbs_adr_i[4] *579:9 0.000278824
18 *649:wbs_adr_i[4] *581:9 0.000110612
*RES
1 wbs_adr_i[4] *649:wbs_adr_i[4] 38.8755 
*END

*D_NET *570 0.0442051
*CONN
*P wbs_adr_i[5] I
*I *649:wbs_adr_i[5] I *D vco_adc_wrapper
*CAP
1 wbs_adr_i[5] 0.0035949
2 *649:wbs_adr_i[5] 0.0035949
3 *649:wbs_adr_i[5] wbs_dat_o[15] 0.00249186
4 *649:wbs_adr_i[5] wbs_dat_o[17] 2.74988e-05
5 *649:wbs_adr_i[5] *649:wbs_adr_i[6] 0.0177671
6 *649:wbs_adr_i[5] *649:wbs_sel_i[1] 0.00754572
7 *649:wbs_adr_i[2] *649:wbs_adr_i[5] 6.62634e-05
8 *649:wbs_adr_i[4] *649:wbs_adr_i[5] 0
9 *544:15 *649:wbs_adr_i[5] 0.0091168
*RES
1 wbs_adr_i[5] *649:wbs_adr_i[5] 40.9731 
*END

*D_NET *571 0.0475582
*CONN
*P wbs_adr_i[6] I
*I *649:wbs_adr_i[6] I *D vco_adc_wrapper
*CAP
1 wbs_adr_i[6] 0.00385085
2 *649:wbs_adr_i[6] 0.00385085
3 *649:wbs_adr_i[6] wbs_dat_o[15] 0.000600148
4 *649:wbs_adr_i[6] wbs_dat_o[19] 0
5 *649:wbs_adr_i[6] *649:wbs_adr_i[7] 0.0191816
6 *649:wbs_adr_i[6] *649:wbs_dat_i[0] 0.000392572
7 *649:wbs_adr_i[6] *584:9 0.000141784
8 *649:wbs_adr_i[6] *586:7 0
9 *649:wbs_adr_i[4] *649:wbs_adr_i[6] 0.000371125
10 *649:wbs_adr_i[5] *649:wbs_adr_i[6] 0.0177671
11 *550:9 *649:wbs_adr_i[6] 0.000408939
12 *551:11 *649:wbs_adr_i[6] 0.000394052
13 *551:13 *649:wbs_adr_i[6] 0.000599155
*RES
1 wbs_adr_i[6] *649:wbs_adr_i[6] 43.129 
*END

*D_NET *572 0.0500196
*CONN
*P wbs_adr_i[7] I
*I *649:wbs_adr_i[7] I *D vco_adc_wrapper
*CAP
1 wbs_adr_i[7] 0.00403769
2 *649:wbs_adr_i[7] 0.00403769
3 *649:wbs_adr_i[7] *649:wbs_adr_i[8] 0.0206656
4 *649:wbs_adr_i[7] *649:wbs_sel_i[0] 0
5 *649:wbs_adr_i[7] *589:7 0
6 *649:wbs_adr_i[4] *649:wbs_adr_i[7] 0.000460372
7 *649:wbs_adr_i[6] *649:wbs_adr_i[7] 0.0191816
8 *551:13 *649:wbs_adr_i[7] 0.000280626
9 *555:9 *649:wbs_adr_i[7] 0.001356
*RES
1 wbs_adr_i[7] *649:wbs_adr_i[7] 45.2266 
*END

*D_NET *573 0.0554957
*CONN
*P wbs_adr_i[8] I
*I *649:wbs_adr_i[8] I *D vco_adc_wrapper
*CAP
1 wbs_adr_i[8] 0.00431638
2 *649:wbs_adr_i[8] 0.00431638
3 *649:wbs_adr_i[8] *649:wbs_adr_i[9] 0.0220834
4 *649:wbs_adr_i[8] *578:9 0.00167492
5 *649:wbs_adr_i[8] *589:9 0.000141085
6 *649:wbs_adr_i[8] *591:7 0
7 *649:wbs_adr_i[4] *649:wbs_adr_i[8] 0.000672628
8 *649:wbs_adr_i[7] *649:wbs_adr_i[8] 0.0206656
9 *555:9 *649:wbs_adr_i[8] 0.000319461
10 *557:9 *649:wbs_adr_i[8] 0.00130576
*RES
1 wbs_adr_i[8] *649:wbs_adr_i[8] 47.3824 
*END

*D_NET *574 0.056764
*CONN
*P wbs_adr_i[9] I
*I *649:wbs_adr_i[9] I *D vco_adc_wrapper
*CAP
1 wbs_adr_i[9] 0.00434751
2 *649:wbs_adr_i[9] 0.00434751
3 *649:wbs_adr_i[9] wbs_dat_o[25] 0
4 *649:wbs_adr_i[9] *577:11 0.0230286
5 *649:wbs_adr_i[9] *591:9 0.000156762
6 *649:wbs_adr_i[9] *619:9 0
7 *649:wbs_adr_i[4] *649:wbs_adr_i[9] 0.00118325
8 *649:wbs_adr_i[8] *649:wbs_adr_i[9] 0.0220834
9 *557:9 *649:wbs_adr_i[9] 0.000354358
10 *559:9 *649:wbs_adr_i[9] 0.00126265
*RES
1 wbs_adr_i[9] *649:wbs_adr_i[9] 49.48 
*END

*D_NET *575 0.0209375
*CONN
*P wbs_cyc_i I
*I *649:wbs_cyc_i I *D vco_adc_wrapper
*CAP
1 wbs_cyc_i 0.00203966
2 *649:wbs_cyc_i 0.00203966
3 *649:wbs_cyc_i wbs_dat_o[2] 0.000162422
4 *649:wbs_cyc_i wbs_dat_o[3] 0.000129862
5 *649:wbs_cyc_i *649:wbs_dat_i[3] 0.000301688
6 *649:wbs_cyc_i *649:wbs_stb_i 0.00816316
7 wbs_ack_o *649:wbs_cyc_i 0.00781003
8 *649:wb_rst_i *649:wbs_cyc_i 0.000290994
*RES
1 wbs_cyc_i *649:wbs_cyc_i 25.754 
*END

*D_NET *576 0.0275093
*CONN
*P wbs_dat_i[0] I
*I *649:wbs_dat_i[0] I *D vco_adc_wrapper
*CAP
1 wbs_dat_i[0] 0.00346497
2 *649:wbs_dat_i[0] 0.00346497
3 *649:wbs_dat_i[0] wbs_dat_o[3] 0.0002678
4 *649:wbs_dat_i[0] *649:wbs_dat_i[4] 0.000752214
5 *649:wbs_dat_i[0] *649:wbs_dat_i[5] 0.00102181
6 *649:wbs_dat_i[0] *649:wbs_stb_i 0.0075906
7 *649:wbs_dat_i[0] *587:11 0.00179143
8 *649:wbs_dat_i[0] *598:11 0.00276259
9 *649:wbs_dat_i[0] *619:11 0.00126608
10 *649:wbs_dat_i[0] *640:11 0.000215251
11 *649:wb_rst_i *649:wbs_dat_i[0] 0.00451903
12 *649:wbs_adr_i[6] *649:wbs_dat_i[0] 0.000392572
*RES
1 wbs_dat_i[0] *649:wbs_dat_i[0] 29.9279 
*END

*D_NET *577 0.066905
*CONN
*P wbs_dat_i[10] I
*I *649:wbs_dat_i[10] I *D vco_adc_wrapper
*CAP
1 wbs_dat_i[10] 0.00534372
2 *649:wbs_dat_i[10] 0.000433417
3 *577:11 0.00577714
4 *577:11 *578:9 0.000583963
5 *577:11 *579:9 0.00106926
6 *577:11 *581:9 0.000692818
7 *577:11 *582:9 0.00262769
8 *577:11 *585:9 0.0148202
9 *649:wbs_adr_i[10] *577:11 0.00208816
10 *649:wbs_adr_i[4] *577:11 0.00819422
11 *649:wbs_adr_i[9] *577:11 0.0230286
12 *559:9 *577:11 0.000385319
13 *561:9 *577:11 0.00173863
14 *563:7 *649:wbs_dat_i[10] 2.15142e-05
15 *563:9 *577:11 0.000100383
*RES
1 wbs_dat_i[10] *577:11 47.0066 
2 *577:11 *649:wbs_dat_i[10] 4.755 
*END

*D_NET *578 0.0501233
*CONN
*P wbs_dat_i[11] I
*I *649:wbs_dat_i[11] I *D vco_adc_wrapper
*CAP
1 wbs_dat_i[11] 0.000437112
2 *649:wbs_dat_i[11] 0.000401685
3 *578:9 0.00843595
4 *578:7 0.00847137
5 *578:7 *649:wbs_dat_i[2] 0
6 *578:9 *579:9 0.00123302
7 *578:9 *581:9 0.000859657
8 *578:9 *582:9 0.0215153
9 *578:9 *584:9 0
10 *578:9 *585:9 0.00120707
11 *578:9 *589:9 0
12 *578:9 *591:9 0.000830147
13 *649:wbs_adr_i[8] *578:9 0.00167492
14 *550:9 *578:9 0
15 *553:9 *578:9 0
16 *556:9 *578:9 0
17 *558:9 *578:9 6.39043e-05
18 *560:9 *578:9 0.00121683
19 *562:9 *578:9 0.00262075
20 *563:9 *578:9 0.000194339
21 *564:9 *578:9 0.00034871
22 *566:7 *649:wbs_dat_i[11] 2.85364e-05
23 *577:11 *578:9 0.000583963
*RES
1 wbs_dat_i[11] *578:7 8.555 
2 *578:7 *578:9 248.16 
3 *578:9 *649:wbs_dat_i[11] 6.3725 
*END

*D_NET *579 0.0525773
*CONN
*P wbs_dat_i[12] I
*I *649:wbs_dat_i[12] I *D vco_adc_wrapper
*CAP
1 wbs_dat_i[12] 0.000380334
2 *649:wbs_dat_i[12] 0.000478479
3 *579:9 0.0102901
4 *579:7 0.0101919
5 *579:7 *649:wbs_sel_i[2] 0
6 *579:9 *581:9 0.0258164
7 *579:9 *585:9 0.002839
8 *579:9 *611:19 0
9 *579:9 *613:11 0
10 *579:9 *613:17 0
11 *579:9 *613:19 0
12 *579:9 *621:11 0
13 *579:9 *626:11 0
14 *649:wbs_adr_i[4] *579:9 0.000278824
15 *577:11 *579:9 0.00106926
16 *578:9 *579:9 0.00123302
*RES
1 wbs_dat_i[12] *579:7 7.79 
2 *579:7 *579:9 260.925 
3 *579:9 *649:wbs_dat_i[12] 7.1375 
*END

*D_NET *580 0.0439457
*CONN
*P wbs_dat_i[13] I
*I *649:wbs_dat_i[13] I *D vco_adc_wrapper
*CAP
1 wbs_dat_i[13] 0.00105335
2 *649:wbs_dat_i[13] 0.0120351
3 *580:15 0.0130884
4 *649:wbs_dat_i[13] wbs_dat_o[28] 0.00507332
5 *649:wbs_dat_i[13] *594:9 0.0021352
6 *649:wbs_adr_i[11] *580:15 2.17773e-05
7 *649:wbs_adr_i[12] *649:wbs_dat_i[13] 0.0103709
8 *546:15 *649:wbs_dat_i[13] 9.95501e-05
9 *546:15 *580:15 1.91843e-05
10 *547:19 *580:15 4.88842e-05
*RES
1 wbs_dat_i[13] *580:15 14.156 
2 *580:15 *649:wbs_dat_i[13] 46.9917 
*END

*D_NET *581 0.0746173
*CONN
*P wbs_dat_i[14] I
*I *649:wbs_dat_i[14] I *D vco_adc_wrapper
*CAP
1 wbs_dat_i[14] 0.000319113
2 *649:wbs_dat_i[14] 0.000450457
3 *581:9 0.00573299
4 *581:7 0.00560165
5 *581:7 wbs_dat_o[3] 0.000178781
6 *581:9 *582:9 0.0301074
7 *581:9 *585:9 0.00474746
8 *581:9 *626:11 0
9 *649:wbs_adr_i[4] *581:9 0.000110612
10 *577:11 *581:9 0.000692818
11 *578:9 *581:9 0.000859657
12 *579:9 *581:9 0.0258164
*RES
1 wbs_dat_i[14] *581:7 8.045 
2 *581:7 *581:9 285.765 
3 *581:9 *649:wbs_dat_i[14] 6.8825 
*END

*D_NET *582 0.0791675
*CONN
*P wbs_dat_i[15] I
*I *649:wbs_dat_i[15] I *D vco_adc_wrapper
*CAP
1 wbs_dat_i[15] 0.000411573
2 *649:wbs_dat_i[15] 0.000422542
3 *582:9 0.00527855
4 *582:7 0.00526758
5 *582:9 *626:11 0
6 *562:9 *582:9 9.80032e-06
7 *563:9 *582:9 0.000212024
8 *564:9 *582:9 0.00247141
9 *566:9 *582:9 0.000859666
10 *567:9 *582:9 0.00998398
11 *577:11 *582:9 0.00262769
12 *578:9 *582:9 0.0215153
13 *581:9 *582:9 0.0301074
*RES
1 wbs_dat_i[15] *582:7 8.3 
2 *582:7 *582:9 298.53 
3 *582:9 *649:wbs_dat_i[15] 6.6275 
*END

*D_NET *583 0.0782722
*CONN
*P wbs_dat_i[16] I
*I *649:wbs_dat_i[16] I *D vco_adc_wrapper
*CAP
1 wbs_dat_i[16] 0.000550847
2 *649:wbs_dat_i[16] 8.15729e-05
3 *583:9 0.00572015
4 *583:7 0.00618942
5 *583:7 *649:wbs_dat_i[4] 0.000445992
6 *583:9 wbs_dat_o[13] 0.000145906
7 *583:9 wbs_dat_o[9] 0.000400105
8 *583:9 *586:9 0.00709715
9 *583:9 *588:9 0.00117707
10 *583:9 *590:9 0.00169052
11 *583:9 *592:9 0.022249
12 *583:9 *616:9 0.000328963
13 *583:9 *618:9 0.00030316
14 *583:9 *625:19 0.00157347
15 *549:9 *583:9 0.0299764
16 *550:9 *583:9 0
17 *552:11 *583:9 0.000342517
*RES
1 wbs_dat_i[16] *583:7 12.635 
2 *583:7 *583:9 310.95 
3 *583:9 *649:wbs_dat_i[16] 2.8025 
*END

*D_NET *584 0.0859982
*CONN
*P wbs_dat_i[17] I
*I *649:wbs_dat_i[17] I *D vco_adc_wrapper
*CAP
1 wbs_dat_i[17] 0.000603233
2 *649:wbs_dat_i[17] 0.000181153
3 *584:9 0.00525126
4 *584:7 0.00567334
5 *584:9 wbs_dat_o[15] 0.000110612
6 *584:9 *616:9 0.00234259
7 *649:wbs_adr_i[6] *584:9 0.000141784
8 *550:9 *584:9 0.0318989
9 *551:13 *584:9 0.000110612
10 *553:9 *584:9 0.0333728
11 *555:9 *584:9 0.00631194
12 *578:9 *584:9 0
*RES
1 wbs_dat_i[17] *584:7 10.85 
2 *584:7 *584:9 323.715 
3 *584:9 *649:wbs_dat_i[17] 4.0775 
*END

*D_NET *585 0.086245
*CONN
*P wbs_dat_i[18] I
*I *649:wbs_dat_i[18] I *D vco_adc_wrapper
*CAP
1 wbs_dat_i[18] 0.000324208
2 *649:wbs_dat_i[18] 0.00041824
3 *585:9 0.00883905
4 *585:7 0.00874502
5 *585:7 wbs_dat_o[15] 0.000128622
6 *585:7 *649:wbs_dat_i[5] 0
7 *585:9 *614:13 0.00278436
8 *585:9 *628:11 0.00432382
9 *649:wbs_adr_i[10] *585:9 0.0137824
10 *563:9 *585:9 0.000845939
11 *564:9 *585:9 0.0224396
12 *577:11 *585:9 0.0148202
13 *578:9 *585:9 0.00120707
14 *579:9 *585:9 0.002839
15 *581:9 *585:9 0.00474746
*RES
1 wbs_dat_i[18] *585:7 6.1625 
2 *585:7 *585:9 56.7897 
3 *585:9 *649:wbs_dat_i[18] 5.765 
*END

*D_NET *586 0.104142
*CONN
*P wbs_dat_i[19] I
*I *649:wbs_dat_i[19] I *D vco_adc_wrapper
*CAP
1 wbs_dat_i[19] 0.000710556
2 *649:wbs_dat_i[19] 0
3 *586:9 0.00852464
4 *586:7 0.0092352
5 *586:7 *639:17 0
6 *586:9 wbs_dat_o[28] 0.000269771
7 *586:9 *588:9 0.000685195
8 *586:9 *590:9 0.000628044
9 *586:9 *592:9 0.00678829
10 *586:9 *594:9 0.000526785
11 *586:9 *599:9 0.000374599
12 *586:9 *618:9 0.000103519
13 *586:9 *631:19 0.0219217
14 *649:wbs_adr_i[11] *586:9 0.00804408
15 *649:wbs_adr_i[6] *586:7 0
16 *548:9 *586:9 0.00219096
17 *549:9 *586:9 0.000303329
18 *552:13 *586:9 0.0350053
19 *555:9 *586:9 0.00173307
20 *583:9 *586:9 0.00709715
*RES
1 wbs_dat_i[19] *586:7 10.7525 
2 *586:7 *586:9 59.033 
3 *586:9 *649:wbs_dat_i[19] 0.5 
*END

*D_NET *587 0.029981
*CONN
*P wbs_dat_i[1] I
*I *649:wbs_dat_i[1] I *D vco_adc_wrapper
*CAP
1 wbs_dat_i[1] 7.08631e-05
2 *649:wbs_dat_i[1] 0.000727685
3 *587:11 0.00234276
4 *587:9 0.00168594
5 *649:wbs_dat_i[1] wbs_dat_o[8] 1.88602e-05
6 *587:11 *649:wbs_dat_i[5] 0.000112235
7 *587:11 *649:wbs_dat_i[6] 0.000578646
8 *587:11 *605:11 0.000119964
9 *587:11 *606:11 0.000119631
10 *587:11 *619:11 0.0117579
11 *587:11 *635:11 2.55731e-05
12 *587:11 *637:11 0.000517861
13 *587:11 *640:11 0.0101117
14 *649:wbs_dat_i[0] *587:11 0.00179143
*RES
1 wbs_dat_i[1] *587:9 2.975 
2 *587:9 *587:11 109.125 
3 *587:11 *649:wbs_dat_i[1] 13.2575 
*END

*D_NET *588 0.095578
*CONN
*P wbs_dat_i[20] I
*I *649:wbs_dat_i[20] I *D vco_adc_wrapper
*CAP
1 wbs_dat_i[20] 0.000567611
2 *649:wbs_dat_i[20] 8.52338e-05
3 *588:9 0.00579903
4 *588:7 0.00628141
5 *588:7 *649:wbs_dat_i[6] 0.000285275
6 *588:9 *590:9 0.036329
7 *588:9 *618:9 0.0373992
8 *588:9 *631:19 0.000360559
9 *552:13 *588:9 0.00610912
10 *555:9 *588:9 0.000499366
11 *556:9 *588:9 0
12 *583:9 *588:9 0.00117707
13 *586:9 *588:9 0.000685195
*RES
1 wbs_dat_i[20] *588:7 11.87 
2 *588:7 *588:9 361.32 
3 *588:9 *649:wbs_dat_i[20] 3.0575 
*END

*D_NET *589 0.101419
*CONN
*P wbs_dat_i[21] I
*I *649:wbs_dat_i[21] I *D vco_adc_wrapper
*CAP
1 wbs_dat_i[21] 0.00055523
2 *649:wbs_dat_i[21] 0.000188116
3 *589:9 0.00597618
4 *589:7 0.00634329
5 *589:9 *590:9 0
6 *649:wbs_adr_i[7] *589:7 0
7 *649:wbs_adr_i[8] *589:9 0.000141085
8 *556:9 *589:9 0.0403864
9 *557:9 *589:9 0.000516904
10 *558:9 *589:9 0.0389411
11 *559:9 *589:9 0.00837069
12 *578:9 *589:9 0
*RES
1 wbs_dat_i[21] *589:7 10.085 
2 *589:7 *589:9 374.085 
3 *589:9 *649:wbs_dat_i[21] 4.8425 
*END

*D_NET *590 0.100783
*CONN
*P wbs_dat_i[22] I
*I *649:wbs_dat_i[22] I *D vco_adc_wrapper
*CAP
1 wbs_dat_i[22] 0.000719289
2 *649:wbs_dat_i[22] 5.96066e-05
3 *590:9 0.00685122
4 *590:7 0.0075109
5 *590:7 *649:wbs_dat_i[7] 0
6 *590:9 *592:9 0.0390643
7 *590:9 *631:19 0.00161548
8 *552:13 *590:9 0.00604741
9 *555:9 *590:9 0.000267463
10 *556:9 *590:9 0
11 *558:9 *590:9 0
12 *583:9 *590:9 0.00169052
13 *586:9 *590:9 0.000628044
14 *588:9 *590:9 0.036329
15 *589:9 *590:9 0
*RES
1 wbs_dat_i[22] *590:7 12.125 
2 *590:7 *590:9 386.505 
3 *590:9 *649:wbs_dat_i[22] 2.8025 
*END

*D_NET *591 0.108472
*CONN
*P wbs_dat_i[23] I
*I *649:wbs_dat_i[23] I *D vco_adc_wrapper
*CAP
1 wbs_dat_i[23] 0.000516529
2 *649:wbs_dat_i[23] 0.000204443
3 *591:9 0.00594072
4 *591:7 0.00625281
5 *649:wbs_adr_i[8] *591:7 0
6 *649:wbs_adr_i[9] *591:9 0.000156762
7 *558:9 *591:9 0.0431494
8 *559:9 *591:9 0.0004324
9 *560:9 *591:9 0.0417424
10 *561:9 *591:9 0.00924655
11 *578:9 *591:9 0.000830147
*RES
1 wbs_dat_i[23] *591:7 9.575 
2 *591:7 *591:9 398.925 
3 *591:9 *649:wbs_dat_i[23] 5.3525 
*END

*D_NET *592 0.0968658
*CONN
*P wbs_dat_i[24] I
*I *649:wbs_dat_i[24] I *D vco_adc_wrapper
*CAP
1 wbs_dat_i[24] 0.000751145
2 *649:wbs_dat_i[24] 5.21629e-05
3 *592:9 0.00849152
4 *592:7 0.0091905
5 *592:7 *649:wbs_dat_i[8] 0
6 *592:9 *625:13 0.000166748
7 *592:9 *625:19 0.00668556
8 *592:9 *631:19 0.00342654
9 *558:9 *592:9 0
10 *583:9 *592:9 0.022249
11 *586:9 *592:9 0.00678829
12 *590:9 *592:9 0.0390643
*RES
1 wbs_dat_i[24] *592:7 12.38 
2 *592:7 *592:9 411.69 
3 *592:9 *649:wbs_dat_i[24] 2.8025 
*END

*D_NET *593 0.108167
*CONN
*P wbs_dat_i[25] I
*I *649:wbs_dat_i[25] I *D vco_adc_wrapper
*CAP
1 wbs_dat_i[25] 0.000254012
2 *649:wbs_dat_i[25] 0.000623019
3 *593:11 0.00692136
4 *593:9 0.00655236
5 *593:11 *595:11 0.0441565
6 *593:11 *607:11 0.000316367
7 *593:11 *609:11 0.000231311
8 *593:11 *615:11 0.00428417
9 *593:11 *624:11 0.044828
*RES
1 wbs_dat_i[25] *593:9 4.52 
2 *593:9 *593:11 422.385 
3 *593:11 *649:wbs_dat_i[25] 12.2375 
*END

*D_NET *594 0.0912717
*CONN
*P wbs_dat_i[26] I
*I *649:wbs_dat_i[26] I *D vco_adc_wrapper
*CAP
1 wbs_dat_i[26] 0.000881612
2 *649:wbs_dat_i[26] 6.85e-05
3 *594:9 0.015781
4 *594:7 0.0165941
5 *594:7 *649:wbs_dat_i[9] 0
6 *594:9 wbs_dat_o[28] 0.000304496
7 *594:9 *599:9 0.0427131
8 *594:9 *625:19 0.000328869
9 *649:wbs_adr_i[11] *594:9 0.00452471
10 *649:wbs_adr_i[12] *594:9 0.00741329
11 *649:wbs_dat_i[13] *594:9 0.0021352
12 *586:9 *594:9 0.000526785
*RES
1 wbs_dat_i[26] *594:7 12.2825 
2 *594:7 *594:9 73.6871 
3 *594:9 *649:wbs_dat_i[26] 1.76 
*END

*D_NET *595 0.114936
*CONN
*P wbs_dat_i[27] I
*I *649:wbs_dat_i[27] I *D vco_adc_wrapper
*CAP
1 wbs_dat_i[27] 0.000127945
2 *649:wbs_dat_i[27] 0.000627203
3 *595:11 0.0077639
4 *595:9 0.00726464
5 *595:11 *609:11 0.000236821
6 *595:11 *617:11 0.00558678
7 *595:11 *627:11 0.0491718
8 *593:11 *595:11 0.0441565
*RES
1 wbs_dat_i[27] *595:9 3.23 
2 *595:9 *595:11 449.985 
3 *595:11 *649:wbs_dat_i[27] 12.4925 
*END

*D_NET *596 0.121385
*CONN
*P wbs_dat_i[28] I
*I *649:wbs_dat_i[28] I *D vco_adc_wrapper
*CAP
1 wbs_dat_i[28] 0.000146949
2 *649:wbs_dat_i[28] 0.000642896
3 *596:11 0.00713887
4 *596:9 0.00664292
5 *596:11 *597:11 0.0496213
6 *596:11 *609:11 0.000395982
7 *596:11 *610:11 0.000448203
8 *596:11 *620:11 0.00699736
9 *596:11 *627:11 0.0493506
*RES
1 wbs_dat_i[28] *596:9 2.975 
2 *596:9 *596:11 462.75 
3 *596:11 *649:wbs_dat_i[28] 13.0025 
*END

*D_NET *597 0.123286
*CONN
*P wbs_dat_i[29] I
*I *649:wbs_dat_i[29] I *D vco_adc_wrapper
*CAP
1 wbs_dat_i[29] 0.000182355
2 *649:wbs_dat_i[29] 0.000625878
3 *597:11 0.00739586
4 *597:9 0.00695234
5 *597:11 *610:11 0.000161204
6 *597:11 *620:11 0.00604192
7 *597:11 *629:11 0.0523052
8 *596:11 *597:11 0.0496213
*RES
1 wbs_dat_i[29] *597:9 3.665 
2 *597:9 *597:11 473.79 
3 *597:11 *649:wbs_dat_i[29] 13.0175 
*END

*D_NET *598 0.0302544
*CONN
*P wbs_dat_i[2] I
*I *649:wbs_dat_i[2] I *D vco_adc_wrapper
*CAP
1 wbs_dat_i[2] 0.000103823
2 *649:wbs_dat_i[2] 0.000823817
3 *598:11 0.00538832
4 *598:9 0.00466832
5 *598:11 wbs_dat_o[6] 0.00282495
6 *598:11 *649:wbs_dat_i[6] 0.00031021
7 *598:11 *607:11 0.00131266
8 *598:11 *609:11 0.00054624
9 *598:11 *619:11 0.0111833
10 *598:11 *638:11 5.98073e-05
11 *649:wb_rst_i *598:11 0.000270374
12 *649:wbs_dat_i[0] *598:11 0.00276259
13 *545:7 *649:wbs_dat_i[2] 0
14 *578:7 *649:wbs_dat_i[2] 0
*RES
1 wbs_dat_i[2] *598:9 2.975 
2 *598:9 *598:11 126.72 
3 *598:11 *649:wbs_dat_i[2] 14.4575 
*END

*D_NET *599 0.125953
*CONN
*P wbs_dat_i[30] I
*I *649:wbs_dat_i[30] I *D vco_adc_wrapper
*CAP
1 wbs_dat_i[30] 0.000854547
2 *649:wbs_dat_i[30] 0.00384099
3 *599:9 0.0118165
4 *599:7 0.00883009
5 *649:wbs_dat_i[30] *631:17 0.0100566
6 *599:7 wbs_dat_o[26] 0
7 *599:7 *610:9 0
8 *599:9 *625:19 0.00779117
9 *599:9 *631:17 0.0004624
10 *599:9 *631:19 0.0389385
11 *548:9 *599:9 0.000145125
12 *549:9 *599:9 0.00012905
13 *586:9 *599:9 0.000374599
14 *594:9 *599:9 0.0427131
*RES
1 wbs_dat_i[30] *599:7 11.7725 
2 *599:7 *599:9 66.5494 
3 *599:9 *649:wbs_dat_i[30] 19.6449 
*END

*D_NET *600 0.113268
*CONN
*P wbs_dat_i[31] I
*I *649:wbs_dat_i[31] I *D vco_adc_wrapper
*CAP
1 wbs_dat_i[31] 0.000332458
2 *649:wbs_dat_i[31] 0.000661985
3 *600:17 0.0252609
4 *600:15 0.0249314
5 *600:17 *620:11 0.0256482
6 *600:17 *628:11 0
7 *600:17 *629:11 0.0122649
8 *600:17 *632:11 0.0241679
*RES
1 wbs_dat_i[31] *600:15 5.0675 
2 *600:15 *600:17 84.2333 
3 *600:17 *649:wbs_dat_i[31] 12.395 
*END

*D_NET *601 0.0394974
*CONN
*P wbs_dat_i[3] I
*I *649:wbs_dat_i[3] I *D vco_adc_wrapper
*CAP
1 wbs_dat_i[3] 0.0035129
2 *649:wbs_dat_i[3] 0.0035129
3 *649:wbs_dat_i[3] wbs_dat_o[13] 0.000409804
4 *649:wbs_dat_i[3] wbs_dat_o[2] 0.0134334
5 *649:wbs_dat_i[3] wbs_dat_o[3] 0.0158763
6 *649:wbs_dat_i[3] *642:9 0.00245038
7 wbs_ack_o *649:wbs_dat_i[3] 0
8 *649:wbs_adr_i[4] *649:wbs_dat_i[3] 0
9 *649:wbs_cyc_i *649:wbs_dat_i[3] 0.000301688
*RES
1 wbs_dat_i[3] *649:wbs_dat_i[3] 36.7196 
*END

*D_NET *602 0.0475396
*CONN
*P wbs_dat_i[4] I
*I *649:wbs_dat_i[4] I *D vco_adc_wrapper
*CAP
1 wbs_dat_i[4] 0.00418033
2 *649:wbs_dat_i[4] 0.00418033
3 *649:wbs_dat_i[4] wbs_dat_o[3] 0.0152372
4 *649:wbs_dat_i[4] wbs_dat_o[4] 0
5 *649:wbs_dat_i[4] *649:wbs_dat_i[5] 0.0170612
6 *649:wbs_dat_i[4] *605:11 0.00228971
7 *649:wbs_dat_i[4] *634:11 0.000102021
8 *649:wbs_dat_i[4] *635:11 0.00308803
9 *649:wbs_dat_i[4] *640:11 0.000202601
10 *649:wbs_adr_i[10] *649:wbs_dat_i[4] 0
11 *649:wbs_adr_i[4] *649:wbs_dat_i[4] 0
12 *649:wbs_dat_i[0] *649:wbs_dat_i[4] 0.000752214
13 *583:7 *649:wbs_dat_i[4] 0.000445992
*RES
1 wbs_dat_i[4] *649:wbs_dat_i[4] 40.2532 
*END

*D_NET *603 0.0545106
*CONN
*P wbs_dat_i[5] I
*I *649:wbs_dat_i[5] I *D vco_adc_wrapper
*CAP
1 wbs_dat_i[5] 0.00447323
2 *649:wbs_dat_i[5] 0.00447323
3 *649:wbs_dat_i[5] wbs_dat_o[15] 0
4 *649:wbs_dat_i[5] *649:wbs_dat_i[6] 0.0186877
5 *649:wbs_dat_i[5] *606:11 0.00243331
6 *649:wbs_dat_i[5] *615:11 0.00262953
7 *649:wbs_dat_i[5] *619:11 0.000104998
8 *649:wbs_dat_i[5] *637:11 0.00329077
9 *649:wbs_dat_i[5] *640:11 0.000222648
10 *649:wbs_adr_i[10] *649:wbs_dat_i[5] 0
11 *649:wbs_dat_i[0] *649:wbs_dat_i[5] 0.00102181
12 *649:wbs_dat_i[4] *649:wbs_dat_i[5] 0.0170612
13 *585:7 *649:wbs_dat_i[5] 0
14 *587:11 *649:wbs_dat_i[5] 0.000112235
*RES
1 wbs_dat_i[5] *649:wbs_dat_i[5] 42.8867 
*END

*D_NET *604 0.0588889
*CONN
*P wbs_dat_i[6] I
*I *649:wbs_dat_i[6] I *D vco_adc_wrapper
*CAP
1 wbs_dat_i[6] 0.00369065
2 *649:wbs_dat_i[6] 0.00369065
3 *649:wbs_dat_i[6] wbs_dat_o[6] 0.0208153
4 *649:wbs_dat_i[6] *607:11 0.00355756
5 *649:wbs_dat_i[6] *615:11 0.000149216
6 *649:wbs_dat_i[6] *617:11 0.0025396
7 *649:wbs_dat_i[6] *619:11 0.000142168
8 *649:wbs_dat_i[6] *638:11 0.00411175
9 *649:wbs_dat_i[6] *640:11 0.000330252
10 *649:wbs_dat_i[5] *649:wbs_dat_i[6] 0.0186877
11 *555:7 *649:wbs_dat_i[6] 0
12 *587:11 *649:wbs_dat_i[6] 0.000578646
13 *588:7 *649:wbs_dat_i[6] 0.000285275
14 *598:11 *649:wbs_dat_i[6] 0.00031021
*RES
1 wbs_dat_i[6] *649:wbs_dat_i[6] 44.5712 
*END

*D_NET *605 0.051376
*CONN
*P wbs_dat_i[7] I
*I *649:wbs_dat_i[7] I *D vco_adc_wrapper
*CAP
1 wbs_dat_i[7] 0.000135665
2 *649:wbs_dat_i[7] 0.000740053
3 *605:11 0.00455433
4 *605:9 0.00394994
5 *605:11 *611:11 0
6 *605:11 *615:11 0.00123064
7 *605:11 *635:11 0.0169294
8 *605:11 *637:11 0.0214263
9 *649:wbs_dat_i[4] *605:11 0.00228971
10 *557:7 *649:wbs_dat_i[7] 0
11 *587:11 *605:11 0.000119964
12 *590:7 *649:wbs_dat_i[7] 0
*RES
1 wbs_dat_i[7] *605:9 3.485 
2 *605:9 *605:11 197.1 
3 *605:11 *649:wbs_dat_i[7] 12.2375 
*END

*D_NET *606 0.0565326
*CONN
*P wbs_dat_i[8] I
*I *649:wbs_dat_i[8] I *D vco_adc_wrapper
*CAP
1 wbs_dat_i[8] 0.00027423
2 *649:wbs_dat_i[8] 0.000802545
3 *606:11 0.00389992
4 *606:9 0.00337161
5 *606:11 *617:11 0.00119829
6 *606:11 *619:11 1.12578e-05
7 *606:11 *622:11 0.000161039
8 *606:11 *623:11 0.000246744
9 *606:11 *637:11 0.0210764
10 *606:11 *638:11 0.0229376
11 *649:wbs_dat_i[5] *606:11 0.00243331
12 *559:7 *649:wbs_dat_i[8] 0
13 *587:11 *606:11 0.000119631
14 *592:7 *649:wbs_dat_i[8] 0
*RES
1 wbs_dat_i[8] *606:9 4.01 
2 *606:9 *606:11 208.83 
3 *606:11 *649:wbs_dat_i[8] 12.7475 
*END

*D_NET *607 0.0612324
*CONN
*P wbs_dat_i[9] I
*I *649:wbs_dat_i[9] I *D vco_adc_wrapper
*CAP
1 wbs_dat_i[9] 0.000113109
2 *649:wbs_dat_i[9] 0.000703379
3 *607:11 0.00388256
4 *607:9 0.00329229
5 *649:wbs_dat_i[9] wbs_dat_o[21] 0.000316196
6 *607:11 *609:11 0.0226337
7 *607:11 *617:11 0.00017677
8 *607:11 *620:11 0.00169005
9 *607:11 *624:11 0.000140195
10 *607:11 *638:11 0.0228252
11 *649:wbs_adr_i[13] *649:wbs_dat_i[9] 0.000272358
12 *649:wbs_dat_i[6] *607:11 0.00355756
13 *593:11 *607:11 0.000316367
14 *594:7 *649:wbs_dat_i[9] 0
15 *598:11 *607:11 0.00131266
*RES
1 wbs_dat_i[9] *607:9 2.975 
2 *607:9 *607:11 223.665 
3 *607:11 *649:wbs_dat_i[9] 13.2575 
*END

*D_NET *608 0.0179335
*CONN
*P wbs_dat_o[0] O
*I *649:wbs_dat_o[0] O *D vco_adc_wrapper
*CAP
1 wbs_dat_o[0] 0.00452388
2 *649:wbs_dat_o[0] 0.00452388
3 wbs_dat_o[0] wbs_dat_o[2] 0.00714264
4 wbs_ack_o wbs_dat_o[0] 0.00174308
5 *649:wbs_adr_i[4] wbs_dat_o[0] 0
*RES
1 *649:wbs_dat_o[0] wbs_dat_o[0] 28.3967 
*END

*D_NET *609 0.0654891
*CONN
*P wbs_dat_o[10] O
*I *649:wbs_dat_o[10] O *D vco_adc_wrapper
*CAP
1 wbs_dat_o[10] 0.000214541
2 *649:wbs_dat_o[10] 0.000690202
3 *609:11 0.0038221
4 *609:9 0.00429776
5 *609:9 wbs_dat_o[28] 0.000415292
6 *609:11 wbs_dat_o[21] 0.00152878
7 *609:11 wbs_dat_o[26] 0.000745141
8 *609:11 wbs_dat_o[6] 0.00373699
9 *609:11 *610:11 0.025233
10 *609:11 *620:11 0.000453746
11 *609:11 *627:11 0.00030748
12 *593:11 *609:11 0.000231311
13 *595:11 *609:11 0.000236821
14 *596:11 *609:11 0.000395982
15 *598:11 *609:11 0.00054624
16 *607:11 *609:11 0.0226337
*RES
1 *649:wbs_dat_o[10] *609:9 13.1675 
2 *609:9 *609:11 238.845 
3 *609:11 wbs_dat_o[10] 3.665 
*END

*D_NET *610 0.0600468
*CONN
*P wbs_dat_o[11] O
*I *649:wbs_dat_o[11] O *D vco_adc_wrapper
*CAP
1 wbs_dat_o[11] 0.000119059
2 *649:wbs_dat_o[11] 0.00101557
3 *610:11 0.00912798
4 *610:9 0.0100245
5 *610:9 wbs_dat_o[30] 0.000134021
6 *610:11 wbs_dat_o[21] 0.00280254
7 *610:11 wbs_dat_o[26] 0.00198543
8 *610:11 wbs_dat_o[6] 0.0059997
9 *610:11 *620:11 0.00157085
10 *610:11 *629:11 0.00142467
11 *596:11 *610:11 0.000448203
12 *597:11 *610:11 0.000161204
13 *599:7 *610:9 0
14 *609:11 *610:11 0.025233
*RES
1 *649:wbs_dat_o[11] *610:9 14.4575 
2 *610:9 *610:11 252.3 
3 *610:11 wbs_dat_o[11] 2.975 
*END

*D_NET *611 0.0500722
*CONN
*P wbs_dat_o[12] O
*I *649:wbs_dat_o[12] O *D vco_adc_wrapper
*CAP
1 wbs_dat_o[12] 0.000272252
2 *649:wbs_dat_o[12] 0.000786426
3 *611:19 0.00290451
4 *611:17 0.00312126
5 *611:11 0.00822107
6 *611:9 0.00851849
7 wbs_dat_o[12] *649:wbs_sel_i[2] 0
8 *611:11 *613:11 0.0180519
9 *611:11 *613:17 0.000824528
10 *611:11 *613:19 0.000256608
11 *611:11 *614:13 0.00177738
12 *611:11 *622:11 0
13 *611:11 *635:11 0
14 *611:11 *637:11 0
15 *611:11 *639:17 0.00158552
16 *611:17 *613:19 0.00065924
17 *611:17 *634:11 0
18 *611:19 *613:19 0.003093
19 *611:19 *643:9 0
20 *579:9 *611:19 0
21 *605:11 *611:11 0
*RES
1 *649:wbs_dat_o[12] *611:9 10.6325 
2 *611:9 *611:11 199.688 
3 *611:11 *611:17 11.5125 
4 *611:17 *611:19 54.615 
5 *611:19 wbs_dat_o[12] 6.005 
*END

*D_NET *612 0.0621619
*CONN
*P wbs_dat_o[13] O
*I *649:wbs_dat_o[13] O *D vco_adc_wrapper
*CAP
1 wbs_dat_o[13] 0.00224319
2 *649:wbs_dat_o[13] 0.00604433
3 *612:11 0.00828752
4 wbs_dat_o[13] wbs_dat_o[15] 0.00104735
5 wbs_dat_o[13] wbs_dat_o[9] 0.00458113
6 wbs_dat_o[13] *634:9 0
7 *612:11 *614:13 0.00767424
8 *612:11 *615:11 0.0069594
9 *612:11 *621:11 0.000534938
10 *612:11 *639:17 0.0116451
11 *649:wbs_adr_i[10] *612:11 0
12 *649:wbs_adr_i[13] *612:11 0.0109291
13 *649:wbs_dat_i[3] wbs_dat_o[13] 0.000409804
14 *544:15 wbs_dat_o[13] 0.00165996
15 *583:9 wbs_dat_o[13] 0.000145906
*RES
1 *649:wbs_dat_o[13] *612:11 49.8591 
2 *612:11 wbs_dat_o[13] 26.9892 
*END

*D_NET *613 0.0630403
*CONN
*P wbs_dat_o[14] O
*I *649:wbs_dat_o[14] O *D vco_adc_wrapper
*CAP
1 wbs_dat_o[14] 0.000278976
2 *649:wbs_dat_o[14] 0.0007523
3 *613:19 0.00270551
4 *613:17 0.00327532
5 *613:11 0.00676191
6 *613:9 0.00666542
7 wbs_dat_o[14] wbs_dat_o[3] 0
8 *613:11 *614:13 0.00403895
9 *613:11 *621:11 0.0152402
10 *613:11 *622:11 0
11 *613:17 *614:13 0.000204043
12 *649:wbs_adr_i[10] *613:19 0.000232426
13 *579:9 *613:11 0
14 *579:9 *613:17 0
15 *579:9 *613:19 0
16 *611:11 *613:11 0.0180519
17 *611:11 *613:17 0.000824528
18 *611:11 *613:19 0.000256608
19 *611:17 *613:19 0.00065924
20 *611:19 *613:19 0.003093
*RES
1 *649:wbs_dat_o[14] *613:9 10.3775 
2 *613:9 *613:11 215.212 
3 *613:11 *613:17 19.4475 
4 *613:17 *613:19 56.34 
5 *613:19 wbs_dat_o[14] 6.26 
*END

*D_NET *614 0.0711036
*CONN
*P wbs_dat_o[15] O
*I *649:wbs_dat_o[15] O *D vco_adc_wrapper
*CAP
1 wbs_dat_o[15] 0.0018867
2 *649:wbs_dat_o[15] 0.000736159
3 *614:13 0.0095617
4 *614:9 0.00841116
5 wbs_dat_o[15] wbs_dat_o[9] 0.000118993
6 *614:13 *615:11 0.00142038
7 *614:13 *621:11 0.0026827
8 *614:13 *626:11 0.0013917
9 *614:13 *628:11 0.00512866
10 *614:13 *639:17 0.0116395
11 wbs_dat_o[13] wbs_dat_o[15] 0.00104735
12 *649:wbs_adr_i[10] *614:13 0.00450523
13 *649:wbs_adr_i[4] wbs_dat_o[15] 0.000370267
14 *649:wbs_adr_i[5] wbs_dat_o[15] 0.00249186
15 *649:wbs_adr_i[6] wbs_dat_o[15] 0.000600148
16 *649:wbs_dat_i[5] wbs_dat_o[15] 0
17 *544:15 wbs_dat_o[15] 0.000369446
18 *550:9 wbs_dat_o[15] 0.000101386
19 *551:11 wbs_dat_o[15] 0.001922
20 *584:9 wbs_dat_o[15] 0.000110612
21 *585:7 wbs_dat_o[15] 0.000128622
22 *585:9 *614:13 0.00278436
23 *611:11 *614:13 0.00177738
24 *612:11 *614:13 0.00767424
25 *613:11 *614:13 0.00403895
26 *613:17 *614:13 0.000204043
*RES
1 *649:wbs_dat_o[15] *614:9 9.005 
2 *614:9 *614:13 45.6364 
3 *614:13 wbs_dat_o[15] 23.941 
*END

*D_NET *615 0.0849168
*CONN
*P wbs_dat_o[16] O
*I *649:wbs_dat_o[16] O *D vco_adc_wrapper
*CAP
1 wbs_dat_o[16] 0.000182787
2 *649:wbs_dat_o[16] 0.000717681
3 *615:11 0.00803171
4 *615:9 0.00856661
5 *615:11 *617:11 0.0334325
6 *615:11 *622:11 0.00266655
7 *615:11 *623:11 0.00289252
8 *615:11 *624:11 0.00489527
9 *615:11 *628:11 0
10 *615:11 *635:11 0.000488543
11 *649:wbs_adr_i[10] *615:11 0
12 *649:wbs_adr_i[13] *615:11 0.00636928
13 *649:wbs_dat_i[5] *615:11 0.00262953
14 *649:wbs_dat_i[6] *615:11 0.000149216
15 *593:11 *615:11 0.00428417
16 *605:11 *615:11 0.00123064
17 *612:11 *615:11 0.0069594
18 *614:13 *615:11 0.00142038
*RES
1 *649:wbs_dat_o[16] *615:9 10.52 
2 *615:9 *615:11 53.1772 
3 *615:11 wbs_dat_o[16] 1.8575 
*END

*D_NET *616 0.0853435
*CONN
*P wbs_dat_o[17] O
*I *649:wbs_dat_o[17] O *D vco_adc_wrapper
*CAP
1 wbs_dat_o[17] 0.000622019
2 *649:wbs_dat_o[17] 7.78831e-05
3 *616:9 0.00592448
4 *616:7 0.00538035
5 *616:9 *618:9 0.032752
6 *649:wbs_adr_i[5] wbs_dat_o[17] 2.74988e-05
7 *550:9 *616:9 0.0308151
8 *551:13 *616:9 0.00628656
9 *552:11 *616:9 0.00012677
10 *552:13 *616:9 0.000230463
11 *553:9 *616:9 0.000428853
12 *583:9 *616:9 0.000328963
13 *584:9 *616:9 0.00234259
*RES
1 *649:wbs_dat_o[17] *616:7 2.945 
2 *616:7 *616:9 328.372 
3 *616:9 wbs_dat_o[17] 11.36 
*END

*D_NET *617 0.100934
*CONN
*P wbs_dat_o[18] O
*I *649:wbs_dat_o[18] O *D vco_adc_wrapper
*CAP
1 wbs_dat_o[18] 0.000142281
2 *649:wbs_dat_o[18] 0.000857536
3 *617:11 0.00689029
4 *617:9 0.00760554
5 *617:11 wbs_dat_o[6] 0.000454803
6 *617:11 *620:11 0.0360022
7 *617:11 *627:11 0.00480815
8 *617:11 *628:11 0
9 *617:11 *637:11 0.0010769
10 *617:11 *638:11 0.000162026
11 *649:wbs_dat_i[6] *617:11 0.0025396
12 *595:11 *617:11 0.00558678
13 *606:11 *617:11 0.00119829
14 *607:11 *617:11 0.00017677
15 *615:11 *617:11 0.0334325
*RES
1 *649:wbs_dat_o[18] *617:9 12.065 
2 *617:9 *617:11 57.4889 
3 *617:11 wbs_dat_o[18] 1.2425 
*END

*D_NET *618 0.0928252
*CONN
*P wbs_dat_o[19] O
*I *649:wbs_dat_o[19] O *D vco_adc_wrapper
*CAP
1 wbs_dat_o[19] 0.000666441
2 *649:wbs_dat_o[19] 5.01487e-05
3 *618:9 0.00630178
4 *618:7 0.00568549
5 *649:wbs_adr_i[6] wbs_dat_o[19] 0
6 *551:13 *618:9 0.00665582
7 *552:13 *618:9 0.000416804
8 *553:9 *618:9 0.00127411
9 *555:9 *618:9 0.000945892
10 *556:9 *618:9 0.000270817
11 *583:9 *618:9 0.00030316
12 *586:9 *618:9 0.000103519
13 *588:9 *618:9 0.0373992
14 *616:9 *618:9 0.032752
*RES
1 *649:wbs_dat_o[19] *618:7 2.69 
2 *618:7 *618:9 353.557 
3 *618:9 wbs_dat_o[19] 11.615 
*END

*D_NET *619 0.032099
*CONN
*P wbs_dat_o[1] O
*I *649:wbs_dat_o[1] O *D vco_adc_wrapper
*CAP
1 wbs_dat_o[1] 9.66756e-05
2 *649:wbs_dat_o[1] 0.000798133
3 *619:11 0.00191178
4 *619:9 0.00261323
5 *619:11 wbs_dat_o[6] 0.000860182
6 *619:11 *638:11 0.000511128
7 *649:wb_rst_i *619:11 0.000842144
8 *649:wbs_adr_i[9] *619:9 0
9 *649:wbs_dat_i[0] *619:11 0.00126608
10 *649:wbs_dat_i[5] *619:11 0.000104998
11 *649:wbs_dat_i[6] *619:11 0.000142168
12 *587:11 *619:11 0.0117579
13 *598:11 *619:11 0.0111833
14 *606:11 *619:11 1.12578e-05
*RES
1 *649:wbs_dat_o[1] *619:9 14.2025 
2 *619:9 *619:11 113.955 
3 *619:11 wbs_dat_o[1] 2.975 
*END

*D_NET *620 0.10906
*CONN
*P wbs_dat_o[20] O
*I *649:wbs_dat_o[20] O *D vco_adc_wrapper
*CAP
1 wbs_dat_o[20] 0.000246922
2 *649:wbs_dat_o[20] 0.000839096
3 *620:11 0.00739137
4 *620:9 0.00798355
5 *620:11 wbs_dat_o[21] 0.00665359
6 *620:11 wbs_dat_o[26] 0.0053815
7 *620:11 wbs_dat_o[6] 0.000143096
8 *620:11 *628:11 0
9 *620:11 *629:11 0.000667522
10 *620:11 *638:11 0.00134923
11 *596:11 *620:11 0.00699736
12 *597:11 *620:11 0.00604192
13 *600:17 *620:11 0.0256482
14 *607:11 *620:11 0.00169005
15 *609:11 *620:11 0.000453746
16 *610:11 *620:11 0.00157085
17 *617:11 *620:11 0.0360022
*RES
1 *649:wbs_dat_o[20] *620:9 12.575 
2 *620:9 *620:11 61.3928 
3 *620:11 wbs_dat_o[20] 1.9325 
*END

*D_NET *621 0.0877511
*CONN
*P wbs_dat_o[21] O
*I *649:wbs_dat_o[21] O *D vco_adc_wrapper
*CAP
1 wbs_dat_o[21] 0.00247741
2 *649:wbs_dat_o[21] 0.000569381
3 *621:11 0.0120233
4 *621:9 0.0101152
5 *621:11 *622:11 0
6 *621:11 *626:11 0.0293825
7 *621:11 *628:11 0.00311812
8 *621:11 *639:17 0.00010189
9 *649:wbs_adr_i[13] wbs_dat_o[21] 0.000164676
10 *649:wbs_dat_i[9] wbs_dat_o[21] 0.000316196
11 *561:7 wbs_dat_o[21] 3.97593e-05
12 *579:9 *621:11 0
13 *609:11 wbs_dat_o[21] 0.00152878
14 *610:11 wbs_dat_o[21] 0.00280254
15 *612:11 *621:11 0.000534938
16 *613:11 *621:11 0.0152402
17 *614:13 *621:11 0.0026827
18 *620:11 wbs_dat_o[21] 0.00665359
*RES
1 *649:wbs_dat_o[21] *621:9 10.1225 
2 *621:9 *621:11 318.885 
3 *621:11 wbs_dat_o[21] 18.7103 
*END

*D_NET *622 0.0763913
*CONN
*P wbs_dat_o[22] O
*I *649:wbs_dat_o[22] O *D vco_adc_wrapper
*CAP
1 wbs_dat_o[22] 0.000101654
2 *649:wbs_dat_o[22] 0.000650435
3 *622:11 0.0142906
4 *622:9 0.0148394
5 wbs_dat_o[22] *637:9 0
6 *622:11 *623:11 0.0417509
7 *622:11 *626:11 0
8 *622:11 *637:11 6.47192e-05
9 *649:wbs_adr_i[13] *622:11 0.00186596
10 *606:11 *622:11 0.000161039
11 *611:11 *622:11 0
12 *613:11 *622:11 0
13 *615:11 *622:11 0.00266655
14 *621:11 *622:11 0
*RES
1 *649:wbs_dat_o[22] *622:9 12.1625 
2 *622:9 *622:11 389.955 
3 *622:11 wbs_dat_o[22] 3.455 
*END

*D_NET *623 0.103846
*CONN
*P wbs_dat_o[23] O
*I *649:wbs_dat_o[23] O *D vco_adc_wrapper
*CAP
1 wbs_dat_o[23] 8.32878e-05
2 *649:wbs_dat_o[23] 0.000655788
3 *623:11 0.00619956
4 *623:9 0.00677206
5 *623:11 *624:11 0.0431375
6 *623:11 *626:11 0
7 *623:11 *638:11 9.96993e-05
8 *649:wbs_adr_i[13] *623:11 0.00200809
9 *606:11 *623:11 0.000246744
10 *615:11 *623:11 0.00289252
11 *622:11 *623:11 0.0417509
*RES
1 *649:wbs_dat_o[23] *623:9 12.4175 
2 *623:9 *623:11 402.72 
3 *623:11 wbs_dat_o[23] 3.2 
*END

*D_NET *624 0.107003
*CONN
*P wbs_dat_o[24] O
*I *649:wbs_dat_o[24] O *D vco_adc_wrapper
*CAP
1 wbs_dat_o[24] 5.32535e-05
2 *649:wbs_dat_o[24] 0.000650781
3 *624:11 0.00631604
4 *624:9 0.00691356
5 wbs_dat_o[24] *638:9 2.69221e-05
6 *624:11 *638:11 4.10476e-05
7 *593:11 *624:11 0.044828
8 *607:11 *624:11 0.000140195
9 *615:11 *624:11 0.00489527
10 *623:11 *624:11 0.0431375
*RES
1 *649:wbs_dat_o[24] *624:9 12.6725 
2 *624:9 *624:11 415.14 
3 *624:11 wbs_dat_o[24] 2.945 
*END

*D_NET *625 0.0706372
*CONN
*P wbs_dat_o[25] O
*I *649:wbs_dat_o[25] O *D vco_adc_wrapper
*CAP
1 wbs_dat_o[25] 0.000839468
2 *649:wbs_dat_o[25] 0.00014077
3 *625:19 0.0157256
4 *625:17 0.0150402
5 *625:13 0.00278417
6 *625:9 0.00277093
7 *625:13 *631:17 0.000202805
8 *649:wbs_adr_i[11] *625:19 0.00110973
9 *649:wbs_adr_i[9] wbs_dat_o[25] 0
10 *548:9 *625:19 0.0136986
11 *549:9 *625:19 0.00165613
12 *560:9 *625:13 0
13 *561:9 *625:13 0.000123021
14 *562:9 *625:13 0
15 *583:9 *625:19 0.00157347
16 *592:9 *625:13 0.000166748
17 *592:9 *625:19 0.00668556
18 *594:9 *625:19 0.000328869
19 *599:9 *625:19 0.00779117
*RES
1 *649:wbs_dat_o[25] *625:9 4.5125 
2 *625:9 *625:13 49.025 
3 *625:13 *625:17 4.4 
4 *625:17 *625:19 380.985 
5 *625:19 wbs_dat_o[25] 13.4 
*END

*D_NET *626 0.0882754
*CONN
*P wbs_dat_o[26] O
*I *649:wbs_dat_o[26] O *D vco_adc_wrapper
*CAP
1 wbs_dat_o[26] 0.00223697
2 *649:wbs_dat_o[26] 0.00046936
3 *626:11 0.0192187
4 *626:9 0.0174511
5 wbs_dat_o[26] *629:11 0.000165928
6 *626:11 *628:11 0.00984714
7 *566:7 wbs_dat_o[26] 0
8 *579:9 *626:11 0
9 *581:9 *626:11 0
10 *582:9 *626:11 0
11 *599:7 wbs_dat_o[26] 0
12 *609:11 wbs_dat_o[26] 0.000745141
13 *610:11 wbs_dat_o[26] 0.00198543
14 *614:13 *626:11 0.0013917
15 *620:11 wbs_dat_o[26] 0.0053815
16 *621:11 *626:11 0.0293825
17 *622:11 *626:11 0
18 *623:11 *626:11 0
*RES
1 *649:wbs_dat_o[26] *626:9 9.8675 
2 *626:9 *626:11 394.44 
3 *626:11 wbs_dat_o[26] 16.469 
*END

*D_NET *627 0.11764
*CONN
*P wbs_dat_o[27] O
*I *649:wbs_dat_o[27] O *D vco_adc_wrapper
*CAP
1 wbs_dat_o[27] 0.000203806
2 *649:wbs_dat_o[27] 0.000672284
3 *627:11 0.00632879
4 *627:9 0.00679726
5 *595:11 *627:11 0.0491718
6 *596:11 *627:11 0.0493506
7 *609:11 *627:11 0.00030748
8 *617:11 *627:11 0.00480815
*RES
1 *649:wbs_dat_o[27] *627:9 13.4375 
2 *627:9 *627:11 451.365 
3 *627:11 wbs_dat_o[27] 3.665 
*END

*D_NET *628 0.0814209
*CONN
*P wbs_dat_o[28] O
*I *649:wbs_dat_o[28] O *D vco_adc_wrapper
*CAP
1 wbs_dat_o[28] 0.00575442
2 *649:wbs_dat_o[28] 0.00047096
3 *628:11 0.022177
4 *628:9 0.0168935
5 *649:wbs_adr_i[11] wbs_dat_o[28] 0.000270015
6 *649:wbs_dat_i[13] wbs_dat_o[28] 0.00507332
7 *564:9 *628:11 0.00737432
8 *585:9 *628:11 0.00432382
9 *586:9 wbs_dat_o[28] 0.000269771
10 *594:9 wbs_dat_o[28] 0.000304496
11 *600:17 *628:11 0
12 *609:9 wbs_dat_o[28] 0.000415292
13 *614:13 *628:11 0.00512866
14 *615:11 *628:11 0
15 *617:11 *628:11 0
16 *620:11 *628:11 0
17 *621:11 *628:11 0.00311812
18 *626:11 *628:11 0.00984714
*RES
1 *649:wbs_dat_o[28] *628:9 8.495 
2 *628:9 *628:11 64.3353 
3 *628:11 wbs_dat_o[28] 30.639 
*END

*D_NET *629 0.1319
*CONN
*P wbs_dat_o[29] O
*I *649:wbs_dat_o[29] O *D vco_adc_wrapper
*CAP
1 wbs_dat_o[29] 0.00012732
2 *649:wbs_dat_o[29] 0.000695566
3 *629:11 0.00687124
4 *629:9 0.00743949
5 *629:11 *632:11 0.049938
6 wbs_dat_o[26] *629:11 0.000165928
7 *597:11 *629:11 0.0523052
8 *600:17 *629:11 0.0122649
9 *610:11 *629:11 0.00142467
10 *620:11 *629:11 0.000667522
*RES
1 *649:wbs_dat_o[29] *629:9 14.2025 
2 *629:9 *629:11 478.62 
3 *629:11 wbs_dat_o[29] 2.975 
*END

*D_NET *630 0.0301555
*CONN
*P wbs_dat_o[2] O
*I *649:wbs_dat_o[2] O *D vco_adc_wrapper
*CAP
1 wbs_dat_o[2] 0.00426437
2 *649:wbs_dat_o[2] 0.00426437
3 wbs_dat_o[2] *642:9 0.000110612
4 wbs_ack_o wbs_dat_o[2] 0.000682108
5 wbs_dat_o[0] wbs_dat_o[2] 0.00714264
6 *649:wb_rst_i wbs_dat_o[2] 9.55843e-05
7 *649:wbs_adr_i[4] wbs_dat_o[2] 0
8 *649:wbs_cyc_i wbs_dat_o[2] 0.000162422
9 *649:wbs_dat_i[3] wbs_dat_o[2] 0.0134334
10 *546:15 wbs_dat_o[2] 0
*RES
1 *649:wbs_dat_o[2] wbs_dat_o[2] 34.622 
*END

*D_NET *631 0.118451
*CONN
*P wbs_dat_o[30] O
*I *649:wbs_dat_o[30] O *D vco_adc_wrapper
*CAP
1 wbs_dat_o[30] 0.000990206
2 *649:wbs_dat_o[30] 0.00473911
3 *631:19 0.0100374
4 *631:17 0.0137863
5 *649:wbs_dat_i[30] *631:17 0.0100566
6 *548:9 *631:19 0.001538
7 *549:9 *631:19 0.00204349
8 *555:9 *631:19 0.000614455
9 *557:9 *631:19 0.00141145
10 *559:9 *631:19 0
11 *561:9 *631:17 0.00101847
12 *561:9 *631:19 0
13 *563:9 *631:17 0.00351108
14 *564:9 *631:17 0.00129752
15 *566:9 *631:17 0.000344881
16 *586:9 *631:19 0.0219217
17 *588:9 *631:19 0.000360559
18 *590:9 *631:19 0.00161548
19 *592:9 *631:19 0.00342654
20 *599:9 *631:17 0.0004624
21 *599:9 *631:19 0.0389385
22 *610:9 wbs_dat_o[30] 0.000134021
23 *625:13 *631:17 0.000202805
*RES
1 *649:wbs_dat_o[30] *631:17 28.7109 
2 *631:17 *631:19 58.9747 
3 *631:19 wbs_dat_o[30] 13.3025 
*END

*D_NET *632 0.113614
*CONN
*P wbs_dat_o[31] O
*I *649:wbs_dat_o[31] O *D vco_adc_wrapper
*CAP
1 wbs_dat_o[31] 0.000133528
2 *649:wbs_dat_o[31] 0.000687536
3 *632:11 0.0190667
4 *632:9 0.0196207
5 *600:17 *632:11 0.0241679
6 *629:11 *632:11 0.049938
*RES
1 *649:wbs_dat_o[31] *632:9 14.4575 
2 *632:9 *632:11 501.735 
3 *632:11 wbs_dat_o[31] 3.665 
*END

*D_NET *633 0.0452644
*CONN
*P wbs_dat_o[3] O
*I *649:wbs_dat_o[3] O *D vco_adc_wrapper
*CAP
1 wbs_dat_o[3] 0.00355858
2 *649:wbs_dat_o[3] 0.00355858
3 wbs_dat_o[3] *649:wbs_stb_i 0.000584439
4 wbs_dat_o[3] *634:11 0.00244185
5 wbs_dat_o[3] *640:11 0.000223115
6 wbs_dat_o[3] *643:9 0.00320796
7 wbs_dat_o[14] wbs_dat_o[3] 0
8 *649:wbs_adr_i[4] wbs_dat_o[3] 0
9 *649:wbs_cyc_i wbs_dat_o[3] 0.000129862
10 *649:wbs_dat_i[0] wbs_dat_o[3] 0.0002678
11 *649:wbs_dat_i[3] wbs_dat_o[3] 0.0158763
12 *649:wbs_dat_i[4] wbs_dat_o[3] 0.0152372
13 *581:7 wbs_dat_o[3] 0.000178781
*RES
1 *649:wbs_dat_o[3] wbs_dat_o[3] 36.8454 
*END

*D_NET *634 0.0427397
*CONN
*P wbs_dat_o[4] O
*I *649:wbs_dat_o[4] O *D vco_adc_wrapper
*CAP
1 wbs_dat_o[4] 8.1097e-05
2 *649:wbs_dat_o[4] 0.000526987
3 *634:11 0.00318846
4 *634:9 0.00363435
5 *634:11 *635:11 0.0166256
6 *634:11 *640:11 0.000192356
7 *634:11 *643:9 0.015216
8 wbs_dat_o[13] *634:9 0
9 wbs_dat_o[3] *634:11 0.00244185
10 *649:wbs_dat_i[4] wbs_dat_o[4] 0
11 *649:wbs_dat_i[4] *634:11 0.000102021
12 *551:11 *634:9 0.000730932
13 *611:17 *634:11 0
*RES
1 *649:wbs_dat_o[4] *634:9 12.4175 
2 *634:9 *634:11 163.635 
3 *634:11 wbs_dat_o[4] 3.2 
*END

*D_NET *635 0.046204
*CONN
*P wbs_dat_o[5] O
*I *649:wbs_dat_o[5] O *D vco_adc_wrapper
*CAP
1 wbs_dat_o[5] 6.70513e-05
2 *649:wbs_dat_o[5] 0.000676137
3 *635:11 0.00332673
4 *635:9 0.00393582
5 *635:9 *639:17 0
6 *635:11 *640:11 0.000800047
7 *649:wbs_dat_i[4] *635:11 0.00308803
8 *553:7 *635:9 0.000241014
9 *587:11 *635:11 2.55731e-05
10 *605:11 *635:11 0.0169294
11 *611:11 *635:11 0
12 *615:11 *635:11 0.000488543
13 *634:11 *635:11 0.0166256
*RES
1 *649:wbs_dat_o[5] *635:9 12.6725 
2 *635:9 *635:11 176.4 
3 *635:11 wbs_dat_o[5] 2.945 
*END

*D_NET *636 0.0512075
*CONN
*P wbs_dat_o[6] O
*I *649:wbs_dat_o[6] O *D vco_adc_wrapper
*CAP
1 wbs_dat_o[6] 0.00818625
2 *649:wbs_dat_o[6] 0.00818625
3 *649:wbs_dat_i[6] wbs_dat_o[6] 0.0208153
4 *556:7 wbs_dat_o[6] 0
5 *598:11 wbs_dat_o[6] 0.00282495
6 *609:11 wbs_dat_o[6] 0.00373699
7 *610:11 wbs_dat_o[6] 0.0059997
8 *617:11 wbs_dat_o[6] 0.000454803
9 *619:11 wbs_dat_o[6] 0.000860182
10 *620:11 wbs_dat_o[6] 0.000143096
*RES
1 *649:wbs_dat_o[6] wbs_dat_o[6] 49.3908 
*END

*D_NET *637 0.0556188
*CONN
*P wbs_dat_o[7] O
*I *649:wbs_dat_o[7] O *D vco_adc_wrapper
*CAP
1 wbs_dat_o[7] 0.000136676
2 *649:wbs_dat_o[7] 0.000866251
3 *637:11 0.00321668
4 *637:9 0.00394625
5 wbs_dat_o[22] *637:9 0
6 *649:wbs_dat_i[5] *637:11 0.00329077
7 *558:7 *637:9 0
8 *587:11 *637:11 0.000517861
9 *605:11 *637:11 0.0214263
10 *606:11 *637:11 0.0210764
11 *611:11 *637:11 0
12 *617:11 *637:11 0.0010769
13 *622:11 *637:11 6.47192e-05
*RES
1 *649:wbs_dat_o[7] *637:9 13.1825 
2 *637:9 *637:11 201.93 
3 *637:11 wbs_dat_o[7] 3.23 
*END

*D_NET *638 0.0602354
*CONN
*P wbs_dat_o[8] O
*I *649:wbs_dat_o[8] O *D vco_adc_wrapper
*CAP
1 wbs_dat_o[8] 0.000140544
2 *649:wbs_dat_o[8] 0.000955019
3 *638:11 0.00309104
4 *638:9 0.00390552
5 wbs_dat_o[24] *638:9 2.69221e-05
6 *649:wbs_dat_i[1] wbs_dat_o[8] 1.88602e-05
7 *649:wbs_dat_i[6] *638:11 0.00411175
8 *560:7 *638:9 0
9 *598:11 *638:11 5.98073e-05
10 *606:11 *638:11 0.0229376
11 *607:11 *638:11 0.0228252
12 *617:11 *638:11 0.000162026
13 *619:11 *638:11 0.000511128
14 *620:11 *638:11 0.00134923
15 *623:11 *638:11 9.96993e-05
16 *624:11 *638:11 4.10476e-05
*RES
1 *649:wbs_dat_o[8] *638:9 13.6925 
2 *638:9 *638:11 214.695 
3 *638:11 wbs_dat_o[8] 2.975 
*END

*D_NET *639 0.0638909
*CONN
*P wbs_dat_o[9] O
*I *649:wbs_dat_o[9] O *D vco_adc_wrapper
*CAP
1 wbs_dat_o[9] 0.00389234
2 *649:wbs_dat_o[9] 0.00314455
3 *639:17 0.00703689
4 wbs_dat_o[9] *649:wbs_sel_i[1] 0
5 wbs_dat_o[13] wbs_dat_o[9] 0.00458113
6 wbs_dat_o[15] wbs_dat_o[9] 0.000118993
7 *649:wbs_adr_i[11] wbs_dat_o[9] 0.0120042
8 *649:wbs_adr_i[2] wbs_dat_o[9] 0.000736402
9 *649:wbs_adr_i[3] wbs_dat_o[9] 0.000535145
10 *544:15 wbs_dat_o[9] 0.00149489
11 *547:19 wbs_dat_o[9] 0.000633907
12 *548:9 wbs_dat_o[9] 0.000344321
13 *549:9 wbs_dat_o[9] 0.00165074
14 *551:11 wbs_dat_o[9] 0.000807785
15 *552:11 wbs_dat_o[9] 0.00142291
16 *552:13 wbs_dat_o[9] 0.000114605
17 *553:7 *639:17 0
18 *583:9 wbs_dat_o[9] 0.000400105
19 *586:7 *639:17 0
20 *611:11 *639:17 0.00158552
21 *612:11 *639:17 0.0116451
22 *614:13 *639:17 0.0116395
23 *621:11 *639:17 0.00010189
24 *635:9 *639:17 0
*RES
1 *649:wbs_dat_o[9] *639:17 35.8901 
2 *639:17 wbs_dat_o[9] 32.4513 
*END

*D_NET *640 0.0205925
*CONN
*P wbs_sel_i[0] I
*I *649:wbs_sel_i[0] I *D vco_adc_wrapper
*CAP
1 wbs_sel_i[0] 9.76491e-05
2 *649:wbs_sel_i[0] 0.000742154
3 *640:11 0.0040496
4 *640:9 0.0034051
5 *640:11 *642:9 0
6 *640:11 *643:9 0
7 wbs_dat_o[3] *640:11 0.000223115
8 *649:wbs_adr_i[7] *649:wbs_sel_i[0] 0
9 *649:wbs_dat_i[0] *640:11 0.000215251
10 *649:wbs_dat_i[4] *640:11 0.000202601
11 *649:wbs_dat_i[5] *640:11 0.000222648
12 *649:wbs_dat_i[6] *640:11 0.000330252
13 *587:11 *640:11 0.0101117
14 *634:11 *640:11 0.000192356
15 *635:11 *640:11 0.000800047
*RES
1 wbs_sel_i[0] *640:9 3.665 
2 *640:9 *640:11 99.465 
3 *640:11 *649:wbs_sel_i[0] 13.6925 
*END

*D_NET *641 0.0282984
*CONN
*P wbs_sel_i[1] I
*I *649:wbs_sel_i[1] I *D vco_adc_wrapper
*CAP
1 wbs_sel_i[1] 0.0038772
2 *649:wbs_sel_i[1] 0.0038772
3 wbs_dat_o[9] *649:wbs_sel_i[1] 0
4 *649:wbs_adr_i[0] *649:wbs_sel_i[1] 0.000252768
5 *649:wbs_adr_i[2] *649:wbs_sel_i[1] 0.0127436
6 *649:wbs_adr_i[4] *649:wbs_sel_i[1] 0
7 *649:wbs_adr_i[5] *649:wbs_sel_i[1] 0.00754572
8 *544:15 *649:wbs_sel_i[1] 1.97029e-06
*RES
1 wbs_sel_i[1] *649:wbs_sel_i[1] 31.3576 
*END

*D_NET *642 0.0275473
*CONN
*P wbs_sel_i[2] I
*I *649:wbs_sel_i[2] I *D vco_adc_wrapper
*CAP
1 wbs_sel_i[2] 0.000113598
2 *649:wbs_sel_i[2] 0.000572246
3 *642:9 0.00589
4 *642:7 0.00543135
5 *642:9 *643:9 0.0129791
6 wbs_dat_o[12] *649:wbs_sel_i[2] 0
7 wbs_dat_o[2] *642:9 0.000110612
8 *649:wbs_dat_i[3] *642:9 0.00245038
9 *579:7 *649:wbs_sel_i[2] 0
10 *640:11 *642:9 0
*RES
1 wbs_sel_i[2] *642:7 3.71 
2 *642:7 *642:9 135 
3 *642:9 *649:wbs_sel_i[2] 11.2175 
*END

*D_NET *643 0.0397274
*CONN
*P wbs_sel_i[3] I
*I *649:wbs_sel_i[3] I *D vco_adc_wrapper
*CAP
1 wbs_sel_i[3] 9.55861e-05
2 *649:wbs_sel_i[3] 0.000488233
3 *643:9 0.00368711
4 *643:7 0.00329446
5 wbs_dat_o[3] *643:9 0.00320796
6 *549:7 *649:wbs_sel_i[3] 0.000758903
7 *611:19 *643:9 0
8 *634:11 *643:9 0.015216
9 *640:11 *643:9 0
10 *642:9 *643:9 0.0129791
*RES
1 wbs_sel_i[3] *643:7 3.455 
2 *643:7 *643:9 151.215 
3 *643:9 *649:wbs_sel_i[3] 12.1625 
*END

*D_NET *644 0.0215629
*CONN
*P wbs_stb_i I
*I *649:wbs_stb_i I *D vco_adc_wrapper
*CAP
1 wbs_stb_i 0.00202692
2 *649:wbs_stb_i 0.00202692
3 wbs_dat_o[3] *649:wbs_stb_i 0.000584439
4 *649:wb_rst_i *649:wbs_stb_i 0.000901351
5 *649:wbs_adr_i[4] *649:wbs_stb_i 0.000269498
6 *649:wbs_cyc_i *649:wbs_stb_i 0.00816316
7 *649:wbs_dat_i[0] *649:wbs_stb_i 0.0075906
*RES
1 wbs_stb_i *649:wbs_stb_i 26.1151 
*END

*D_NET *645 0.0196039
*CONN
*P wbs_we_i I
*I *649:wbs_we_i I *D vco_adc_wrapper
*CAP
1 wbs_we_i 0.00404806
2 *649:wbs_we_i 0.00404806
3 *649:wb_clk_i *649:wbs_we_i 0.00123535
4 *649:wbs_adr_i[0] *649:wbs_we_i 0.00106747
5 *649:wbs_adr_i[1] *649:wbs_we_i 0.00703315
6 *649:wbs_adr_i[3] *649:wbs_we_i 0.00125309
7 *540:9 *649:wbs_we_i 0.000918684
*RES
1 wbs_we_i *649:wbs_we_i 26.6732 
*END

*D_NET *646 0.274319
*CONN
*I *649:phase_in I *D vco_adc_wrapper
*I *648:quantizer_out O *D vco_adc2
*CAP
1 *649:phase_in 0.0145629
2 *648:quantizer_out 0.000550608
3 *646:13 0.131241
4 *646:11 0.117229
5 *649:phase_in *647:11 0.0107345
*RES
1 *648:quantizer_out *646:11 2.62997 
2 *646:11 *646:13 251.375 
3 *646:13 *649:phase_in 47.8782 
*END

*D_NET *647 0.329092
*CONN
*I *648:enable_in I *D vco_adc2
*I *649:vco_enb_o O *D vco_adc_wrapper
*CAP
1 *648:enable_in 0.000528499
2 *649:vco_enb_o 0.000493242
3 *647:15 0.0512001
4 *647:13 0.0506716
5 *647:11 0.0413857
6 *647:9 0.0418789
7 *648:clk *647:15 0.1322
8 *649:phase_in *647:11 0.0107345
*RES
1 *649:vco_enb_o *647:9 10.9625 
2 *647:9 *647:11 714.6 
3 *647:11 *647:13 2 
4 *647:13 *647:15 1477.83 
5 *647:15 *648:enable_in 13.015 
*END
