*SPEF "ieee 1481-1999"
*DESIGN "user_project_wrapper"
*DATE "11:11:11 Fri 11 11, 1111"
*VENDOR "OpenRCX"
*PROGRAM "Parallel Extraction"
*VERSION "1.0"
*DESIGN_FLOW "NAME_SCOPE LOCAL" "PIN_CAP NONE"
*DIVIDER /
*DELIMITER :
*BUS_DELIMITER []
*T_UNIT 1 NS
*C_UNIT 1 PF
*R_UNIT 1 OHM
*L_UNIT 1 HENRY

*NAME_MAP
*1 analog_io[0]
*2 analog_io[10]
*3 analog_io[11]
*4 analog_io[12]
*5 analog_io[13]
*6 analog_io[14]
*7 analog_io[15]
*8 analog_io[16]
*9 analog_io[17]
*10 analog_io[18]
*11 analog_io[19]
*12 analog_io[1]
*13 analog_io[20]
*14 analog_io[21]
*15 analog_io[22]
*16 analog_io[23]
*17 analog_io[24]
*18 analog_io[25]
*19 analog_io[26]
*20 analog_io[27]
*21 analog_io[28]
*22 analog_io[2]
*23 analog_io[3]
*24 analog_io[4]
*25 analog_io[5]
*26 analog_io[6]
*27 analog_io[7]
*28 analog_io[8]
*29 analog_io[9]
*30 io_in[0]
*31 io_in[10]
*32 io_in[11]
*33 io_in[12]
*34 io_in[13]
*35 io_in[14]
*36 io_in[15]
*37 io_in[16]
*38 io_in[17]
*39 io_in[18]
*40 io_in[19]
*41 io_in[1]
*42 io_in[20]
*43 io_in[21]
*44 io_in[22]
*45 io_in[23]
*46 io_in[24]
*47 io_in[25]
*48 io_in[26]
*49 io_in[27]
*50 io_in[28]
*51 io_in[29]
*52 io_in[2]
*53 io_in[30]
*54 io_in[31]
*55 io_in[32]
*56 io_in[33]
*57 io_in[34]
*58 io_in[35]
*59 io_in[36]
*60 io_in[37]
*61 io_in[3]
*62 io_in[4]
*63 io_in[5]
*64 io_in[6]
*65 io_in[7]
*66 io_in[8]
*67 io_in[9]
*68 io_oeb[0]
*69 io_oeb[10]
*70 io_oeb[11]
*71 io_oeb[12]
*72 io_oeb[13]
*73 io_oeb[14]
*74 io_oeb[15]
*75 io_oeb[16]
*76 io_oeb[17]
*77 io_oeb[18]
*78 io_oeb[19]
*79 io_oeb[1]
*80 io_oeb[20]
*81 io_oeb[21]
*82 io_oeb[22]
*83 io_oeb[23]
*84 io_oeb[24]
*85 io_oeb[25]
*86 io_oeb[26]
*87 io_oeb[27]
*88 io_oeb[28]
*89 io_oeb[29]
*90 io_oeb[2]
*91 io_oeb[30]
*92 io_oeb[31]
*93 io_oeb[32]
*94 io_oeb[33]
*95 io_oeb[34]
*96 io_oeb[35]
*97 io_oeb[36]
*98 io_oeb[37]
*99 io_oeb[3]
*100 io_oeb[4]
*101 io_oeb[5]
*102 io_oeb[6]
*103 io_oeb[7]
*104 io_oeb[8]
*105 io_oeb[9]
*106 io_out[0]
*107 io_out[10]
*108 io_out[11]
*109 io_out[12]
*110 io_out[13]
*111 io_out[14]
*112 io_out[15]
*113 io_out[16]
*114 io_out[17]
*115 io_out[18]
*116 io_out[19]
*117 io_out[1]
*118 io_out[20]
*119 io_out[21]
*120 io_out[22]
*121 io_out[23]
*122 io_out[24]
*123 io_out[25]
*124 io_out[26]
*125 io_out[27]
*126 io_out[28]
*127 io_out[29]
*128 io_out[2]
*129 io_out[30]
*130 io_out[31]
*131 io_out[32]
*132 io_out[33]
*133 io_out[34]
*134 io_out[35]
*135 io_out[36]
*136 io_out[37]
*137 io_out[3]
*138 io_out[4]
*139 io_out[5]
*140 io_out[6]
*141 io_out[7]
*142 io_out[8]
*143 io_out[9]
*144 la_data_in[0]
*145 la_data_in[100]
*146 la_data_in[101]
*147 la_data_in[102]
*148 la_data_in[103]
*149 la_data_in[104]
*150 la_data_in[105]
*151 la_data_in[106]
*152 la_data_in[107]
*153 la_data_in[108]
*154 la_data_in[109]
*155 la_data_in[10]
*156 la_data_in[110]
*157 la_data_in[111]
*158 la_data_in[112]
*159 la_data_in[113]
*160 la_data_in[114]
*161 la_data_in[115]
*162 la_data_in[116]
*163 la_data_in[117]
*164 la_data_in[118]
*165 la_data_in[119]
*166 la_data_in[11]
*167 la_data_in[120]
*168 la_data_in[121]
*169 la_data_in[122]
*170 la_data_in[123]
*171 la_data_in[124]
*172 la_data_in[125]
*173 la_data_in[126]
*174 la_data_in[127]
*175 la_data_in[12]
*176 la_data_in[13]
*177 la_data_in[14]
*178 la_data_in[15]
*179 la_data_in[16]
*180 la_data_in[17]
*181 la_data_in[18]
*182 la_data_in[19]
*183 la_data_in[1]
*184 la_data_in[20]
*185 la_data_in[21]
*186 la_data_in[22]
*187 la_data_in[23]
*188 la_data_in[24]
*189 la_data_in[25]
*190 la_data_in[26]
*191 la_data_in[27]
*192 la_data_in[28]
*193 la_data_in[29]
*194 la_data_in[2]
*195 la_data_in[30]
*196 la_data_in[31]
*197 la_data_in[32]
*198 la_data_in[33]
*199 la_data_in[34]
*200 la_data_in[35]
*201 la_data_in[36]
*202 la_data_in[37]
*203 la_data_in[38]
*204 la_data_in[39]
*205 la_data_in[3]
*206 la_data_in[40]
*207 la_data_in[41]
*208 la_data_in[42]
*209 la_data_in[43]
*210 la_data_in[44]
*211 la_data_in[45]
*212 la_data_in[46]
*213 la_data_in[47]
*214 la_data_in[48]
*215 la_data_in[49]
*216 la_data_in[4]
*217 la_data_in[50]
*218 la_data_in[51]
*219 la_data_in[52]
*220 la_data_in[53]
*221 la_data_in[54]
*222 la_data_in[55]
*223 la_data_in[56]
*224 la_data_in[57]
*225 la_data_in[58]
*226 la_data_in[59]
*227 la_data_in[5]
*228 la_data_in[60]
*229 la_data_in[61]
*230 la_data_in[62]
*231 la_data_in[63]
*232 la_data_in[64]
*233 la_data_in[65]
*234 la_data_in[66]
*235 la_data_in[67]
*236 la_data_in[68]
*237 la_data_in[69]
*238 la_data_in[6]
*239 la_data_in[70]
*240 la_data_in[71]
*241 la_data_in[72]
*242 la_data_in[73]
*243 la_data_in[74]
*244 la_data_in[75]
*245 la_data_in[76]
*246 la_data_in[77]
*247 la_data_in[78]
*248 la_data_in[79]
*249 la_data_in[7]
*250 la_data_in[80]
*251 la_data_in[81]
*252 la_data_in[82]
*253 la_data_in[83]
*254 la_data_in[84]
*255 la_data_in[85]
*256 la_data_in[86]
*257 la_data_in[87]
*258 la_data_in[88]
*259 la_data_in[89]
*260 la_data_in[8]
*261 la_data_in[90]
*262 la_data_in[91]
*263 la_data_in[92]
*264 la_data_in[93]
*265 la_data_in[94]
*266 la_data_in[95]
*267 la_data_in[96]
*268 la_data_in[97]
*269 la_data_in[98]
*270 la_data_in[99]
*271 la_data_in[9]
*272 la_data_out[0]
*273 la_data_out[100]
*274 la_data_out[101]
*275 la_data_out[102]
*276 la_data_out[103]
*277 la_data_out[104]
*278 la_data_out[105]
*279 la_data_out[106]
*280 la_data_out[107]
*281 la_data_out[108]
*282 la_data_out[109]
*283 la_data_out[10]
*284 la_data_out[110]
*285 la_data_out[111]
*286 la_data_out[112]
*287 la_data_out[113]
*288 la_data_out[114]
*289 la_data_out[115]
*290 la_data_out[116]
*291 la_data_out[117]
*292 la_data_out[118]
*293 la_data_out[119]
*294 la_data_out[11]
*295 la_data_out[120]
*296 la_data_out[121]
*297 la_data_out[122]
*298 la_data_out[123]
*299 la_data_out[124]
*300 la_data_out[125]
*301 la_data_out[126]
*302 la_data_out[127]
*303 la_data_out[12]
*304 la_data_out[13]
*305 la_data_out[14]
*306 la_data_out[15]
*307 la_data_out[16]
*308 la_data_out[17]
*309 la_data_out[18]
*310 la_data_out[19]
*311 la_data_out[1]
*312 la_data_out[20]
*313 la_data_out[21]
*314 la_data_out[22]
*315 la_data_out[23]
*316 la_data_out[24]
*317 la_data_out[25]
*318 la_data_out[26]
*319 la_data_out[27]
*320 la_data_out[28]
*321 la_data_out[29]
*322 la_data_out[2]
*323 la_data_out[30]
*324 la_data_out[31]
*325 la_data_out[32]
*326 la_data_out[33]
*327 la_data_out[34]
*328 la_data_out[35]
*329 la_data_out[36]
*330 la_data_out[37]
*331 la_data_out[38]
*332 la_data_out[39]
*333 la_data_out[3]
*334 la_data_out[40]
*335 la_data_out[41]
*336 la_data_out[42]
*337 la_data_out[43]
*338 la_data_out[44]
*339 la_data_out[45]
*340 la_data_out[46]
*341 la_data_out[47]
*342 la_data_out[48]
*343 la_data_out[49]
*344 la_data_out[4]
*345 la_data_out[50]
*346 la_data_out[51]
*347 la_data_out[52]
*348 la_data_out[53]
*349 la_data_out[54]
*350 la_data_out[55]
*351 la_data_out[56]
*352 la_data_out[57]
*353 la_data_out[58]
*354 la_data_out[59]
*355 la_data_out[5]
*356 la_data_out[60]
*357 la_data_out[61]
*358 la_data_out[62]
*359 la_data_out[63]
*360 la_data_out[64]
*361 la_data_out[65]
*362 la_data_out[66]
*363 la_data_out[67]
*364 la_data_out[68]
*365 la_data_out[69]
*366 la_data_out[6]
*367 la_data_out[70]
*368 la_data_out[71]
*369 la_data_out[72]
*370 la_data_out[73]
*371 la_data_out[74]
*372 la_data_out[75]
*373 la_data_out[76]
*374 la_data_out[77]
*375 la_data_out[78]
*376 la_data_out[79]
*377 la_data_out[7]
*378 la_data_out[80]
*379 la_data_out[81]
*380 la_data_out[82]
*381 la_data_out[83]
*382 la_data_out[84]
*383 la_data_out[85]
*384 la_data_out[86]
*385 la_data_out[87]
*386 la_data_out[88]
*387 la_data_out[89]
*388 la_data_out[8]
*389 la_data_out[90]
*390 la_data_out[91]
*391 la_data_out[92]
*392 la_data_out[93]
*393 la_data_out[94]
*394 la_data_out[95]
*395 la_data_out[96]
*396 la_data_out[97]
*397 la_data_out[98]
*398 la_data_out[99]
*399 la_data_out[9]
*400 la_oenb[0]
*401 la_oenb[100]
*402 la_oenb[101]
*403 la_oenb[102]
*404 la_oenb[103]
*405 la_oenb[104]
*406 la_oenb[105]
*407 la_oenb[106]
*408 la_oenb[107]
*409 la_oenb[108]
*410 la_oenb[109]
*411 la_oenb[10]
*412 la_oenb[110]
*413 la_oenb[111]
*414 la_oenb[112]
*415 la_oenb[113]
*416 la_oenb[114]
*417 la_oenb[115]
*418 la_oenb[116]
*419 la_oenb[117]
*420 la_oenb[118]
*421 la_oenb[119]
*422 la_oenb[11]
*423 la_oenb[120]
*424 la_oenb[121]
*425 la_oenb[122]
*426 la_oenb[123]
*427 la_oenb[124]
*428 la_oenb[125]
*429 la_oenb[126]
*430 la_oenb[127]
*431 la_oenb[12]
*432 la_oenb[13]
*433 la_oenb[14]
*434 la_oenb[15]
*435 la_oenb[16]
*436 la_oenb[17]
*437 la_oenb[18]
*438 la_oenb[19]
*439 la_oenb[1]
*440 la_oenb[20]
*441 la_oenb[21]
*442 la_oenb[22]
*443 la_oenb[23]
*444 la_oenb[24]
*445 la_oenb[25]
*446 la_oenb[26]
*447 la_oenb[27]
*448 la_oenb[28]
*449 la_oenb[29]
*450 la_oenb[2]
*451 la_oenb[30]
*452 la_oenb[31]
*453 la_oenb[32]
*454 la_oenb[33]
*455 la_oenb[34]
*456 la_oenb[35]
*457 la_oenb[36]
*458 la_oenb[37]
*459 la_oenb[38]
*460 la_oenb[39]
*461 la_oenb[3]
*462 la_oenb[40]
*463 la_oenb[41]
*464 la_oenb[42]
*465 la_oenb[43]
*466 la_oenb[44]
*467 la_oenb[45]
*468 la_oenb[46]
*469 la_oenb[47]
*470 la_oenb[48]
*471 la_oenb[49]
*472 la_oenb[4]
*473 la_oenb[50]
*474 la_oenb[51]
*475 la_oenb[52]
*476 la_oenb[53]
*477 la_oenb[54]
*478 la_oenb[55]
*479 la_oenb[56]
*480 la_oenb[57]
*481 la_oenb[58]
*482 la_oenb[59]
*483 la_oenb[5]
*484 la_oenb[60]
*485 la_oenb[61]
*486 la_oenb[62]
*487 la_oenb[63]
*488 la_oenb[64]
*489 la_oenb[65]
*490 la_oenb[66]
*491 la_oenb[67]
*492 la_oenb[68]
*493 la_oenb[69]
*494 la_oenb[6]
*495 la_oenb[70]
*496 la_oenb[71]
*497 la_oenb[72]
*498 la_oenb[73]
*499 la_oenb[74]
*500 la_oenb[75]
*501 la_oenb[76]
*502 la_oenb[77]
*503 la_oenb[78]
*504 la_oenb[79]
*505 la_oenb[7]
*506 la_oenb[80]
*507 la_oenb[81]
*508 la_oenb[82]
*509 la_oenb[83]
*510 la_oenb[84]
*511 la_oenb[85]
*512 la_oenb[86]
*513 la_oenb[87]
*514 la_oenb[88]
*515 la_oenb[89]
*516 la_oenb[8]
*517 la_oenb[90]
*518 la_oenb[91]
*519 la_oenb[92]
*520 la_oenb[93]
*521 la_oenb[94]
*522 la_oenb[95]
*523 la_oenb[96]
*524 la_oenb[97]
*525 la_oenb[98]
*526 la_oenb[99]
*527 la_oenb[9]
*528 user_clock2
*529 user_irq[0]
*530 user_irq[1]
*531 user_irq[2]
*540 wb_clk_i
*541 wb_rst_i
*542 wbs_ack_o
*543 wbs_adr_i[0]
*544 wbs_adr_i[10]
*545 wbs_adr_i[11]
*546 wbs_adr_i[12]
*547 wbs_adr_i[13]
*548 wbs_adr_i[14]
*549 wbs_adr_i[15]
*550 wbs_adr_i[16]
*551 wbs_adr_i[17]
*552 wbs_adr_i[18]
*553 wbs_adr_i[19]
*554 wbs_adr_i[1]
*555 wbs_adr_i[20]
*556 wbs_adr_i[21]
*557 wbs_adr_i[22]
*558 wbs_adr_i[23]
*559 wbs_adr_i[24]
*560 wbs_adr_i[25]
*561 wbs_adr_i[26]
*562 wbs_adr_i[27]
*563 wbs_adr_i[28]
*564 wbs_adr_i[29]
*565 wbs_adr_i[2]
*566 wbs_adr_i[30]
*567 wbs_adr_i[31]
*568 wbs_adr_i[3]
*569 wbs_adr_i[4]
*570 wbs_adr_i[5]
*571 wbs_adr_i[6]
*572 wbs_adr_i[7]
*573 wbs_adr_i[8]
*574 wbs_adr_i[9]
*575 wbs_cyc_i
*576 wbs_dat_i[0]
*577 wbs_dat_i[10]
*578 wbs_dat_i[11]
*579 wbs_dat_i[12]
*580 wbs_dat_i[13]
*581 wbs_dat_i[14]
*582 wbs_dat_i[15]
*583 wbs_dat_i[16]
*584 wbs_dat_i[17]
*585 wbs_dat_i[18]
*586 wbs_dat_i[19]
*587 wbs_dat_i[1]
*588 wbs_dat_i[20]
*589 wbs_dat_i[21]
*590 wbs_dat_i[22]
*591 wbs_dat_i[23]
*592 wbs_dat_i[24]
*593 wbs_dat_i[25]
*594 wbs_dat_i[26]
*595 wbs_dat_i[27]
*596 wbs_dat_i[28]
*597 wbs_dat_i[29]
*598 wbs_dat_i[2]
*599 wbs_dat_i[30]
*600 wbs_dat_i[31]
*601 wbs_dat_i[3]
*602 wbs_dat_i[4]
*603 wbs_dat_i[5]
*604 wbs_dat_i[6]
*605 wbs_dat_i[7]
*606 wbs_dat_i[8]
*607 wbs_dat_i[9]
*608 wbs_dat_o[0]
*609 wbs_dat_o[10]
*610 wbs_dat_o[11]
*611 wbs_dat_o[12]
*612 wbs_dat_o[13]
*613 wbs_dat_o[14]
*614 wbs_dat_o[15]
*615 wbs_dat_o[16]
*616 wbs_dat_o[17]
*617 wbs_dat_o[18]
*618 wbs_dat_o[19]
*619 wbs_dat_o[1]
*620 wbs_dat_o[20]
*621 wbs_dat_o[21]
*622 wbs_dat_o[22]
*623 wbs_dat_o[23]
*624 wbs_dat_o[24]
*625 wbs_dat_o[25]
*626 wbs_dat_o[26]
*627 wbs_dat_o[27]
*628 wbs_dat_o[28]
*629 wbs_dat_o[29]
*630 wbs_dat_o[2]
*631 wbs_dat_o[30]
*632 wbs_dat_o[31]
*633 wbs_dat_o[3]
*634 wbs_dat_o[4]
*635 wbs_dat_o[5]
*636 wbs_dat_o[6]
*637 wbs_dat_o[7]
*638 wbs_dat_o[8]
*639 wbs_dat_o[9]
*640 wbs_sel_i[0]
*641 wbs_sel_i[1]
*642 wbs_sel_i[2]
*643 wbs_sel_i[3]
*644 wbs_stb_i
*645 wbs_we_i
*646 phase0
*647 vco_enb
*648 vco_adc2
*649 vco_adc_wrapper

*PORTS
analog_io[0] I
analog_io[10] I
analog_io[11] I
analog_io[12] I
analog_io[13] I
analog_io[14] I
analog_io[15] I
analog_io[16] I
analog_io[17] I
analog_io[18] I
analog_io[19] I
analog_io[1] I
analog_io[20] I
analog_io[21] I
analog_io[22] I
analog_io[23] I
analog_io[24] I
analog_io[25] I
analog_io[26] I
analog_io[27] I
analog_io[28] I
analog_io[2] I
analog_io[3] I
analog_io[4] I
analog_io[5] I
analog_io[6] I
analog_io[7] I
analog_io[8] I
analog_io[9] I
io_in[0] I
io_in[10] I
io_in[11] I
io_in[12] I
io_in[13] I
io_in[14] I
io_in[15] I
io_in[16] I
io_in[17] I
io_in[18] I
io_in[19] I
io_in[1] I
io_in[20] I
io_in[21] I
io_in[22] I
io_in[23] I
io_in[24] I
io_in[25] I
io_in[26] I
io_in[27] I
io_in[28] I
io_in[29] I
io_in[2] I
io_in[30] I
io_in[31] I
io_in[32] I
io_in[33] I
io_in[34] I
io_in[35] I
io_in[36] I
io_in[37] I
io_in[3] I
io_in[4] I
io_in[5] I
io_in[6] I
io_in[7] I
io_in[8] I
io_in[9] I
io_oeb[0] O
io_oeb[10] O
io_oeb[11] O
io_oeb[12] O
io_oeb[13] O
io_oeb[14] O
io_oeb[15] O
io_oeb[16] O
io_oeb[17] O
io_oeb[18] O
io_oeb[19] O
io_oeb[1] O
io_oeb[20] O
io_oeb[21] O
io_oeb[22] O
io_oeb[23] O
io_oeb[24] O
io_oeb[25] O
io_oeb[26] O
io_oeb[27] O
io_oeb[28] O
io_oeb[29] O
io_oeb[2] O
io_oeb[30] O
io_oeb[31] O
io_oeb[32] O
io_oeb[33] O
io_oeb[34] O
io_oeb[35] O
io_oeb[36] O
io_oeb[37] O
io_oeb[3] O
io_oeb[4] O
io_oeb[5] O
io_oeb[6] O
io_oeb[7] O
io_oeb[8] O
io_oeb[9] O
io_out[0] O
io_out[10] O
io_out[11] O
io_out[12] O
io_out[13] O
io_out[14] O
io_out[15] O
io_out[16] O
io_out[17] O
io_out[18] O
io_out[19] O
io_out[1] O
io_out[20] O
io_out[21] O
io_out[22] O
io_out[23] O
io_out[24] O
io_out[25] O
io_out[26] O
io_out[27] O
io_out[28] O
io_out[29] O
io_out[2] O
io_out[30] O
io_out[31] O
io_out[32] O
io_out[33] O
io_out[34] O
io_out[35] O
io_out[36] O
io_out[37] O
io_out[3] O
io_out[4] O
io_out[5] O
io_out[6] O
io_out[7] O
io_out[8] O
io_out[9] O
la_data_in[0] I
la_data_in[100] I
la_data_in[101] I
la_data_in[102] I
la_data_in[103] I
la_data_in[104] I
la_data_in[105] I
la_data_in[106] I
la_data_in[107] I
la_data_in[108] I
la_data_in[109] I
la_data_in[10] I
la_data_in[110] I
la_data_in[111] I
la_data_in[112] I
la_data_in[113] I
la_data_in[114] I
la_data_in[115] I
la_data_in[116] I
la_data_in[117] I
la_data_in[118] I
la_data_in[119] I
la_data_in[11] I
la_data_in[120] I
la_data_in[121] I
la_data_in[122] I
la_data_in[123] I
la_data_in[124] I
la_data_in[125] I
la_data_in[126] I
la_data_in[127] I
la_data_in[12] I
la_data_in[13] I
la_data_in[14] I
la_data_in[15] I
la_data_in[16] I
la_data_in[17] I
la_data_in[18] I
la_data_in[19] I
la_data_in[1] I
la_data_in[20] I
la_data_in[21] I
la_data_in[22] I
la_data_in[23] I
la_data_in[24] I
la_data_in[25] I
la_data_in[26] I
la_data_in[27] I
la_data_in[28] I
la_data_in[29] I
la_data_in[2] I
la_data_in[30] I
la_data_in[31] I
la_data_in[32] I
la_data_in[33] I
la_data_in[34] I
la_data_in[35] I
la_data_in[36] I
la_data_in[37] I
la_data_in[38] I
la_data_in[39] I
la_data_in[3] I
la_data_in[40] I
la_data_in[41] I
la_data_in[42] I
la_data_in[43] I
la_data_in[44] I
la_data_in[45] I
la_data_in[46] I
la_data_in[47] I
la_data_in[48] I
la_data_in[49] I
la_data_in[4] I
la_data_in[50] I
la_data_in[51] I
la_data_in[52] I
la_data_in[53] I
la_data_in[54] I
la_data_in[55] I
la_data_in[56] I
la_data_in[57] I
la_data_in[58] I
la_data_in[59] I
la_data_in[5] I
la_data_in[60] I
la_data_in[61] I
la_data_in[62] I
la_data_in[63] I
la_data_in[64] I
la_data_in[65] I
la_data_in[66] I
la_data_in[67] I
la_data_in[68] I
la_data_in[69] I
la_data_in[6] I
la_data_in[70] I
la_data_in[71] I
la_data_in[72] I
la_data_in[73] I
la_data_in[74] I
la_data_in[75] I
la_data_in[76] I
la_data_in[77] I
la_data_in[78] I
la_data_in[79] I
la_data_in[7] I
la_data_in[80] I
la_data_in[81] I
la_data_in[82] I
la_data_in[83] I
la_data_in[84] I
la_data_in[85] I
la_data_in[86] I
la_data_in[87] I
la_data_in[88] I
la_data_in[89] I
la_data_in[8] I
la_data_in[90] I
la_data_in[91] I
la_data_in[92] I
la_data_in[93] I
la_data_in[94] I
la_data_in[95] I
la_data_in[96] I
la_data_in[97] I
la_data_in[98] I
la_data_in[99] I
la_data_in[9] I
la_data_out[0] O
la_data_out[100] O
la_data_out[101] O
la_data_out[102] O
la_data_out[103] O
la_data_out[104] O
la_data_out[105] O
la_data_out[106] O
la_data_out[107] O
la_data_out[108] O
la_data_out[109] O
la_data_out[10] O
la_data_out[110] O
la_data_out[111] O
la_data_out[112] O
la_data_out[113] O
la_data_out[114] O
la_data_out[115] O
la_data_out[116] O
la_data_out[117] O
la_data_out[118] O
la_data_out[119] O
la_data_out[11] O
la_data_out[120] O
la_data_out[121] O
la_data_out[122] O
la_data_out[123] O
la_data_out[124] O
la_data_out[125] O
la_data_out[126] O
la_data_out[127] O
la_data_out[12] O
la_data_out[13] O
la_data_out[14] O
la_data_out[15] O
la_data_out[16] O
la_data_out[17] O
la_data_out[18] O
la_data_out[19] O
la_data_out[1] O
la_data_out[20] O
la_data_out[21] O
la_data_out[22] O
la_data_out[23] O
la_data_out[24] O
la_data_out[25] O
la_data_out[26] O
la_data_out[27] O
la_data_out[28] O
la_data_out[29] O
la_data_out[2] O
la_data_out[30] O
la_data_out[31] O
la_data_out[32] O
la_data_out[33] O
la_data_out[34] O
la_data_out[35] O
la_data_out[36] O
la_data_out[37] O
la_data_out[38] O
la_data_out[39] O
la_data_out[3] O
la_data_out[40] O
la_data_out[41] O
la_data_out[42] O
la_data_out[43] O
la_data_out[44] O
la_data_out[45] O
la_data_out[46] O
la_data_out[47] O
la_data_out[48] O
la_data_out[49] O
la_data_out[4] O
la_data_out[50] O
la_data_out[51] O
la_data_out[52] O
la_data_out[53] O
la_data_out[54] O
la_data_out[55] O
la_data_out[56] O
la_data_out[57] O
la_data_out[58] O
la_data_out[59] O
la_data_out[5] O
la_data_out[60] O
la_data_out[61] O
la_data_out[62] O
la_data_out[63] O
la_data_out[64] O
la_data_out[65] O
la_data_out[66] O
la_data_out[67] O
la_data_out[68] O
la_data_out[69] O
la_data_out[6] O
la_data_out[70] O
la_data_out[71] O
la_data_out[72] O
la_data_out[73] O
la_data_out[74] O
la_data_out[75] O
la_data_out[76] O
la_data_out[77] O
la_data_out[78] O
la_data_out[79] O
la_data_out[7] O
la_data_out[80] O
la_data_out[81] O
la_data_out[82] O
la_data_out[83] O
la_data_out[84] O
la_data_out[85] O
la_data_out[86] O
la_data_out[87] O
la_data_out[88] O
la_data_out[89] O
la_data_out[8] O
la_data_out[90] O
la_data_out[91] O
la_data_out[92] O
la_data_out[93] O
la_data_out[94] O
la_data_out[95] O
la_data_out[96] O
la_data_out[97] O
la_data_out[98] O
la_data_out[99] O
la_data_out[9] O
la_oenb[0] I
la_oenb[100] I
la_oenb[101] I
la_oenb[102] I
la_oenb[103] I
la_oenb[104] I
la_oenb[105] I
la_oenb[106] I
la_oenb[107] I
la_oenb[108] I
la_oenb[109] I
la_oenb[10] I
la_oenb[110] I
la_oenb[111] I
la_oenb[112] I
la_oenb[113] I
la_oenb[114] I
la_oenb[115] I
la_oenb[116] I
la_oenb[117] I
la_oenb[118] I
la_oenb[119] I
la_oenb[11] I
la_oenb[120] I
la_oenb[121] I
la_oenb[122] I
la_oenb[123] I
la_oenb[124] I
la_oenb[125] I
la_oenb[126] I
la_oenb[127] I
la_oenb[12] I
la_oenb[13] I
la_oenb[14] I
la_oenb[15] I
la_oenb[16] I
la_oenb[17] I
la_oenb[18] I
la_oenb[19] I
la_oenb[1] I
la_oenb[20] I
la_oenb[21] I
la_oenb[22] I
la_oenb[23] I
la_oenb[24] I
la_oenb[25] I
la_oenb[26] I
la_oenb[27] I
la_oenb[28] I
la_oenb[29] I
la_oenb[2] I
la_oenb[30] I
la_oenb[31] I
la_oenb[32] I
la_oenb[33] I
la_oenb[34] I
la_oenb[35] I
la_oenb[36] I
la_oenb[37] I
la_oenb[38] I
la_oenb[39] I
la_oenb[3] I
la_oenb[40] I
la_oenb[41] I
la_oenb[42] I
la_oenb[43] I
la_oenb[44] I
la_oenb[45] I
la_oenb[46] I
la_oenb[47] I
la_oenb[48] I
la_oenb[49] I
la_oenb[4] I
la_oenb[50] I
la_oenb[51] I
la_oenb[52] I
la_oenb[53] I
la_oenb[54] I
la_oenb[55] I
la_oenb[56] I
la_oenb[57] I
la_oenb[58] I
la_oenb[59] I
la_oenb[5] I
la_oenb[60] I
la_oenb[61] I
la_oenb[62] I
la_oenb[63] I
la_oenb[64] I
la_oenb[65] I
la_oenb[66] I
la_oenb[67] I
la_oenb[68] I
la_oenb[69] I
la_oenb[6] I
la_oenb[70] I
la_oenb[71] I
la_oenb[72] I
la_oenb[73] I
la_oenb[74] I
la_oenb[75] I
la_oenb[76] I
la_oenb[77] I
la_oenb[78] I
la_oenb[79] I
la_oenb[7] I
la_oenb[80] I
la_oenb[81] I
la_oenb[82] I
la_oenb[83] I
la_oenb[84] I
la_oenb[85] I
la_oenb[86] I
la_oenb[87] I
la_oenb[88] I
la_oenb[89] I
la_oenb[8] I
la_oenb[90] I
la_oenb[91] I
la_oenb[92] I
la_oenb[93] I
la_oenb[94] I
la_oenb[95] I
la_oenb[96] I
la_oenb[97] I
la_oenb[98] I
la_oenb[99] I
la_oenb[9] I
user_clock2 I
user_irq[0] O
user_irq[1] O
user_irq[2] O
wb_clk_i I
wb_rst_i I
wbs_ack_o O
wbs_adr_i[0] I
wbs_adr_i[10] I
wbs_adr_i[11] I
wbs_adr_i[12] I
wbs_adr_i[13] I
wbs_adr_i[14] I
wbs_adr_i[15] I
wbs_adr_i[16] I
wbs_adr_i[17] I
wbs_adr_i[18] I
wbs_adr_i[19] I
wbs_adr_i[1] I
wbs_adr_i[20] I
wbs_adr_i[21] I
wbs_adr_i[22] I
wbs_adr_i[23] I
wbs_adr_i[24] I
wbs_adr_i[25] I
wbs_adr_i[26] I
wbs_adr_i[27] I
wbs_adr_i[28] I
wbs_adr_i[29] I
wbs_adr_i[2] I
wbs_adr_i[30] I
wbs_adr_i[31] I
wbs_adr_i[3] I
wbs_adr_i[4] I
wbs_adr_i[5] I
wbs_adr_i[6] I
wbs_adr_i[7] I
wbs_adr_i[8] I
wbs_adr_i[9] I
wbs_cyc_i I
wbs_dat_i[0] I
wbs_dat_i[10] I
wbs_dat_i[11] I
wbs_dat_i[12] I
wbs_dat_i[13] I
wbs_dat_i[14] I
wbs_dat_i[15] I
wbs_dat_i[16] I
wbs_dat_i[17] I
wbs_dat_i[18] I
wbs_dat_i[19] I
wbs_dat_i[1] I
wbs_dat_i[20] I
wbs_dat_i[21] I
wbs_dat_i[22] I
wbs_dat_i[23] I
wbs_dat_i[24] I
wbs_dat_i[25] I
wbs_dat_i[26] I
wbs_dat_i[27] I
wbs_dat_i[28] I
wbs_dat_i[29] I
wbs_dat_i[2] I
wbs_dat_i[30] I
wbs_dat_i[31] I
wbs_dat_i[3] I
wbs_dat_i[4] I
wbs_dat_i[5] I
wbs_dat_i[6] I
wbs_dat_i[7] I
wbs_dat_i[8] I
wbs_dat_i[9] I
wbs_dat_o[0] O
wbs_dat_o[10] O
wbs_dat_o[11] O
wbs_dat_o[12] O
wbs_dat_o[13] O
wbs_dat_o[14] O
wbs_dat_o[15] O
wbs_dat_o[16] O
wbs_dat_o[17] O
wbs_dat_o[18] O
wbs_dat_o[19] O
wbs_dat_o[1] O
wbs_dat_o[20] O
wbs_dat_o[21] O
wbs_dat_o[22] O
wbs_dat_o[23] O
wbs_dat_o[24] O
wbs_dat_o[25] O
wbs_dat_o[26] O
wbs_dat_o[27] O
wbs_dat_o[28] O
wbs_dat_o[29] O
wbs_dat_o[2] O
wbs_dat_o[30] O
wbs_dat_o[31] O
wbs_dat_o[3] O
wbs_dat_o[4] O
wbs_dat_o[5] O
wbs_dat_o[6] O
wbs_dat_o[7] O
wbs_dat_o[8] O
wbs_dat_o[9] O
wbs_sel_i[0] I
wbs_sel_i[1] I
wbs_sel_i[2] I
wbs_sel_i[3] I
wbs_stb_i I
wbs_we_i I

*D_NET *83 0.203756
*CONN
*P io_oeb[23] O
*I *649:io_oeb[0] O *D vco_adc_wrapper
*CAP
1 io_oeb[23] 8.21166e-05
2 *649:io_oeb[0] 0.0095668
3 *83:21 0.0058725
4 *83:9 0.092229
5 *83:7 0.0960054
6 *83:9 *84:9 0
*RES
1 *649:io_oeb[0] *83:7 40.6573 
2 *83:7 *83:9 256.715 
3 *83:9 *83:21 44.3448 
4 *83:21 io_oeb[23] 9.87464 
*END

*D_NET *84 0.242758
*CONN
*P io_oeb[24] O
*I *649:io_oeb[1] O *D vco_adc_wrapper
*CAP
1 io_oeb[24] 0.00101854
2 *649:io_oeb[1] 0.00995705
3 *84:9 0.0607428
4 *84:7 0.0696813
5 *84:9 *85:9 0.101359
6 *83:9 *84:9 0
*RES
1 *649:io_oeb[1] *84:7 42.2029 
2 *84:7 *84:9 287.941 
3 *84:9 io_oeb[24] 11.1192 
*END

*D_NET *85 0.248221
*CONN
*P io_oeb[25] O
*I *649:io_oeb[2] O *D vco_adc_wrapper
*CAP
1 io_oeb[25] 0.000973786
2 *649:io_oeb[2] 0.0102295
3 *85:9 0.0632018
4 *85:7 0.0724575
5 *84:9 *85:9 0.101359
*RES
1 *649:io_oeb[2] *85:7 42.3747 
2 *85:7 *85:9 295.176 
3 *85:9 io_oeb[25] 10.9475 
*END

*D_NET *528 0.587252
*CONN
*P user_clock2 I
*I *648:clk I *D vco_adc2
*I *649:user_clock2 I *D vco_adc_wrapper
*CAP
1 user_clock2 0.0011732
2 *648:clk 0
3 *649:user_clock2 0.000658975
4 *528:47 0.000572788
5 *528:39 0.00778653
6 *528:37 0.00721374
7 *528:35 0.0945619
8 *528:25 0.0956068
9 *528:21 0.0500819
10 *528:19 0.0545914
11 *528:15 0.00528958
12 *528:9 0.122988
13 *528:7 0.123767
14 *528:9 *549:9 0.00458721
15 *528:9 *556:9 0.0049131
16 *528:9 *557:9 0
17 *528:9 *558:9 0
18 *528:9 *559:9 0
19 *528:9 *560:9 0
20 *528:9 *561:9 0
21 *528:9 *564:9 0
22 *528:9 *567:9 0
23 *528:9 *572:9 0.00714385
24 *528:15 wbs_dat_o[13] 0
25 *528:15 *649:wbs_dat_i[0] 0
26 *528:15 *580:7 0
27 *528:19 *543:9 0
28 *528:19 *544:9 0
29 *528:19 *545:9 0.000920565
30 *528:19 *573:9 0
31 *528:19 *574:9 0
32 *528:19 *577:9 0.00539537
*RES
1 user_clock2 *528:7 42.0114 
2 *528:7 *528:9 2691.97 
3 *528:9 *528:15 30.0118 
4 *528:15 *528:19 28.0629 
5 *528:19 *528:21 1150.89 
6 *528:21 *528:25 8.61714 
7 *528:25 *649:user_clock2 10.1317 
8 *528:25 *528:35 2135.36 
9 *528:35 *528:37 15 
10 *528:37 *528:39 152.126 
11 *528:39 *528:47 42.615 
12 *528:47 *648:clk 15 
*END

*D_NET *540 0.139277
*CONN
*P wb_clk_i I
*I *649:wb_clk_i I *D vco_adc_wrapper
*CAP
1 wb_clk_i 0.000681881
2 *649:wb_clk_i 0.0441666
3 *540:16 8.61998e-06
4 *540:11 0.0499743
5 *540:7 0.00649822
6 *649:wb_clk_i *574:7 0.000437789
7 *540:11 *541:11 0.0206754
8 *540:11 *542:8 7.86635e-05
9 *540:11 *575:9 0.000242522
10 *540:11 *633:8 0.000351468
11 *540:11 *637:8 0.000607218
12 *540:11 *640:9 0.0011442
13 *540:11 *641:9 0.0137538
14 *540:11 *645:9 0.000656625
*RES
1 wb_clk_i *540:7 23.5668 
2 *540:7 *540:11 48.6709 
3 *540:11 *649:wb_clk_i 1019.12 
4 *649:wb_clk_i *540:16 0.196786 
*END

*D_NET *541 0.130324
*CONN
*P wb_rst_i I
*I *649:wb_rst_i I *D vco_adc_wrapper
*CAP
1 wb_rst_i 0.000664345
2 *649:wb_rst_i 0.044372
3 *541:16 8.61998e-06
4 *541:11 0.053102
5 *541:7 0.00940288
6 *649:wb_rst_i wbs_dat_o[9] 0
7 *649:wb_rst_i *607:7 0
8 *541:11 *638:8 0.00158704
9 *541:11 *641:9 0.000511555
10 *540:11 *541:11 0.0206754
*RES
1 wb_rst_i *541:7 22.8625 
2 *541:7 *541:11 49.7013 
3 *541:11 *649:wb_rst_i 1019.83 
4 *649:wb_rst_i *541:16 0.196786 
*END

*D_NET *542 0.131255
*CONN
*P wbs_ack_o O
*I *649:wbs_ack_o O *D vco_adc_wrapper
*CAP
1 wbs_ack_o 0.000853696
2 *649:wbs_ack_o 0.0440752
3 *542:19 8.61998e-06
4 *542:8 0.00908857
5 *542:6 0.00823487
6 *542:4 0.0440666
7 *542:4 *544:7 0
8 *542:4 *577:7 0
9 *542:8 *554:9 0
10 *542:8 *565:9 0
11 *542:8 *568:9 0.0028528
12 *542:8 *575:9 0.0216969
13 *542:8 *576:9 0
14 *542:8 *587:9 0
15 *542:8 *598:9 0
16 *542:8 *633:8 0.000299103
17 *540:11 *542:8 7.86635e-05
*RES
1 *649:wbs_ack_o *542:4 1015.6 
2 *542:4 *542:6 8 
3 *542:6 *542:8 42.6459 
4 *542:8 wbs_ack_o 27.0882 
5 *649:wbs_ack_o *542:19 0.196786 
*END

*D_NET *543 0.135021
*CONN
*P wbs_adr_i[0] I
*I *649:wbs_adr_i[0] I *D vco_adc_wrapper
*CAP
1 wbs_adr_i[0] 0.00123054
2 *649:wbs_adr_i[0] 0.043661
3 *543:16 8.61998e-06
4 *543:11 0.0436524
5 *543:9 0.00817329
6 *543:7 0.00940383
7 *543:9 *573:9 0.00441348
8 *543:9 *576:9 0.0244782
9 *528:19 *543:9 0
*RES
1 wbs_adr_i[0] *543:7 34.8354 
2 *543:7 *543:9 46.424 
3 *543:9 *543:11 8 
4 *543:11 *649:wbs_adr_i[0] 1007.85 
5 *649:wbs_adr_i[0] *543:16 0.196786 
*END

*D_NET *544 0.178075
*CONN
*P wbs_adr_i[10] I
*I *649:wbs_adr_i[10] I *D vco_adc_wrapper
*CAP
1 wbs_adr_i[10] 0.00160279
2 *649:wbs_adr_i[10] 0.0448878
3 *544:16 8.61998e-06
4 *544:11 0.0448792
5 *544:9 0.0100716
6 *544:7 0.0116743
7 *544:9 *549:9 0.000914726
8 *544:9 *566:9 0.00685852
9 *544:9 *567:9 0.000789406
10 *544:9 *574:9 0.0391415
11 *544:9 *577:9 0.000315397
12 *544:9 *578:9 0.000471157
13 *544:9 *579:9 0.000628362
14 *544:9 *580:9 0.0158318
15 *528:19 *544:9 0
16 *542:4 *544:7 0
*RES
1 wbs_adr_i[10] *544:7 37.6525 
2 *544:7 *544:9 78.9675 
3 *544:9 *544:11 8 
4 *544:11 *649:wbs_adr_i[10] 1005.04 
5 *649:wbs_adr_i[10] *544:16 0.196786 
*END

*D_NET *545 0.160587
*CONN
*P wbs_adr_i[11] I
*I *649:wbs_adr_i[11] I *D vco_adc_wrapper
*CAP
1 wbs_adr_i[11] 0.00190848
2 *649:wbs_adr_i[11] 0.0432915
3 *545:16 8.61998e-06
4 *545:11 0.0432829
5 *545:9 0.0172761
6 *545:7 0.0191846
7 *545:7 *649:wbs_cyc_i 0
8 *545:9 *546:9 0
9 *545:9 *547:9 0.00014805
10 *545:9 *577:9 0.00481777
11 *545:9 *578:9 0
12 *545:9 *585:9 0.000489202
13 *545:9 *586:9 0.000850193
14 *545:9 *588:9 0.0266227
15 *545:9 *612:8 0.00178619
16 *528:19 *545:9 0.000920565
*RES
1 wbs_adr_i[11] *545:7 44.6954 
2 *545:7 *545:9 81.8869 
3 *545:9 *545:11 8 
4 *545:11 *649:wbs_adr_i[11] 997.994 
5 *649:wbs_adr_i[11] *545:16 0.196786 
*END

*D_NET *546 0.168898
*CONN
*P wbs_adr_i[12] I
*I *649:wbs_adr_i[12] I *D vco_adc_wrapper
*CAP
1 wbs_adr_i[12] 0.00184892
2 *649:wbs_adr_i[12] 0.0429679
3 *546:16 8.61998e-06
4 *546:11 0.0429593
5 *546:9 0.0172018
6 *546:7 0.0190507
7 *546:7 *649:wbs_we_i 0.000841066
8 *546:9 *547:9 0.0440196
9 *545:9 *546:9 0
*RES
1 wbs_adr_i[12] *546:7 48.9211 
2 *546:7 *546:9 84.7205 
3 *546:9 *546:11 8 
4 *546:11 *649:wbs_adr_i[12] 993.768 
5 *649:wbs_adr_i[12] *546:16 0.196786 
*END

*D_NET *547 0.198814
*CONN
*P wbs_adr_i[13] I
*I *649:wbs_adr_i[13] I *D vco_adc_wrapper
*CAP
1 wbs_adr_i[13] 0.00210424
2 *649:wbs_adr_i[13] 0.0429988
3 *547:16 8.61998e-06
4 *547:11 0.0429901
5 *547:9 0.009141
6 *547:7 0.0112452
7 *547:9 *612:8 0.0461588
8 *545:9 *547:9 0.00014805
9 *546:9 *547:9 0.0440196
*RES
1 wbs_adr_i[13] *547:7 48.2168 
2 *547:7 *547:9 87.64 
3 *547:9 *547:11 8 
4 *547:11 *649:wbs_adr_i[13] 994.472 
5 *649:wbs_adr_i[13] *547:16 0.196786 
*END

*D_NET *548 0.198637
*CONN
*P wbs_adr_i[14] I
*I *649:wbs_adr_i[14] I *D vco_adc_wrapper
*CAP
1 wbs_adr_i[14] 0.0011368
2 *649:wbs_adr_i[14] 0.0440841
3 *548:16 8.61998e-06
4 *548:11 0.0440755
5 *548:9 0.0155084
6 *548:7 0.0166452
7 *548:9 *552:9 0.000416469
8 *548:9 *553:9 0.000950508
9 *548:9 *555:9 0.0381129
10 *548:9 *562:9 0.00842365
11 *548:9 *568:9 0.0110179
12 *548:9 *598:9 0.00770658
13 *548:9 *602:9 0.000162608
14 *548:9 *603:9 0.00532302
15 *548:9 *604:9 0.000183817
16 *548:9 *613:8 0.00488137
*RES
1 wbs_adr_i[14] *548:7 30.6096 
2 *548:7 *548:9 90.4736 
3 *548:9 *548:11 8 
4 *548:11 *649:wbs_adr_i[14] 1012.08 
5 *649:wbs_adr_i[14] *548:16 0.196786 
*END

*D_NET *549 0.188538
*CONN
*P wbs_adr_i[15] I
*I *649:wbs_adr_i[15] I *D vco_adc_wrapper
*CAP
1 wbs_adr_i[15] 0.00143958
2 *649:wbs_adr_i[15] 0.0437536
3 *549:16 8.61998e-06
4 *549:11 0.043745
5 *549:9 0.012369
6 *549:7 0.0138086
7 *549:7 *649:wbs_adr_i[1] 0
8 *549:9 *550:9 0.048585
9 *549:9 *554:9 0.00019458
10 *549:9 *565:9 0.000101071
11 *549:9 *566:9 0.00304051
12 *549:9 *573:9 0.0144144
13 *549:9 *574:9 0.0011643
14 *549:9 *587:9 0.000412027
15 *528:9 *549:9 0.00458721
16 *544:9 *549:9 0.000914726
*RES
1 wbs_adr_i[15] *549:7 34.8354 
2 *549:7 *549:9 93.3931 
3 *549:9 *549:11 8 
4 *549:11 *649:wbs_adr_i[15] 1007.85 
5 *649:wbs_adr_i[15] *549:16 0.196786 
*END

*D_NET *550 0.212416
*CONN
*P wbs_adr_i[16] I
*I *649:wbs_adr_i[16] I *D vco_adc_wrapper
*CAP
1 wbs_adr_i[16] 0.0013852
2 *649:wbs_adr_i[16] 0.0449194
3 *550:16 8.61998e-06
4 *550:11 0.0449107
5 *550:9 0.0100597
6 *550:7 0.0114449
7 *550:7 *649:wbs_dat_i[1] 0
8 *550:9 *551:9 0.0501276
9 *550:9 *565:9 0.000662229
10 *550:9 *566:9 0
11 *550:9 *572:9 0.000312285
12 *549:9 *550:9 0.048585
*RES
1 wbs_adr_i[16] *550:7 34.1311 
2 *550:7 *550:9 96.2267 
3 *550:9 *550:11 8 
4 *550:11 *649:wbs_adr_i[16] 1008.56 
5 *649:wbs_adr_i[16] *550:16 0.196786 
*END

*D_NET *551 0.217645
*CONN
*P wbs_adr_i[17] I
*I *649:wbs_adr_i[17] I *D vco_adc_wrapper
*CAP
1 wbs_adr_i[17] 0.00125256
2 *649:wbs_adr_i[17] 0.0437861
3 *551:16 8.61998e-06
4 *551:11 0.0437774
5 *551:9 0.0106535
6 *551:7 0.0119061
7 *551:7 *649:wbs_sel_i[1] 0.000300117
8 *551:9 *552:9 0.0517103
9 *551:9 *565:9 0.000606666
10 *551:9 *566:9 0
11 *551:9 *572:9 0.00328488
12 *551:9 *598:9 0.000230738
13 *550:9 *551:9 0.0501276
*RES
1 wbs_adr_i[17] *551:7 33.4268 
2 *551:7 *551:9 99.1461 
3 *551:9 *551:11 8 
4 *551:11 *649:wbs_adr_i[17] 1009.26 
5 *649:wbs_adr_i[17] *551:16 0.196786 
*END

*D_NET *552 0.236482
*CONN
*P wbs_adr_i[18] I
*I *649:wbs_adr_i[18] I *D vco_adc_wrapper
*CAP
1 wbs_adr_i[18] 0.00130261
2 *649:wbs_adr_i[18] 0.0438131
3 *552:16 8.61998e-06
4 *552:11 0.0438045
5 *552:9 0.0111782
6 *552:7 0.0124808
7 *552:9 *553:9 0.0533278
8 *552:9 *556:9 0.00807095
9 *552:9 *557:9 0.00959489
10 *552:9 *566:9 0
11 *552:9 *598:9 0.000294671
12 *552:9 *601:9 0.00017917
13 *552:9 *605:9 0.000300439
14 *548:9 *552:9 0.000416469
15 *551:9 *552:9 0.0517103
*RES
1 wbs_adr_i[18] *552:7 32.7225 
2 *552:7 *552:9 101.98 
3 *552:9 *552:11 8 
4 *552:11 *649:wbs_adr_i[18] 1009.97 
5 *649:wbs_adr_i[18] *552:16 0.196786 
*END

*D_NET *553 0.241039
*CONN
*P wbs_adr_i[19] I
*I *649:wbs_adr_i[19] I *D vco_adc_wrapper
*CAP
1 wbs_adr_i[19] 0.00125467
2 *649:wbs_adr_i[19] 0.0438539
3 *553:16 8.61998e-06
4 *553:11 0.0438453
5 *553:9 0.0114058
6 *553:7 0.0126604
7 *553:9 *555:9 0.0548624
8 *553:9 *558:9 0.00835425
9 *553:9 *559:9 0.00959493
10 *553:9 *566:9 0
11 *553:9 *601:9 0.000468949
12 *553:9 *602:9 0.000242106
13 *553:9 *604:9 0.000209705
14 *548:9 *553:9 0.000950508
15 *552:9 *553:9 0.0533278
*RES
1 wbs_adr_i[19] *553:7 32.0182 
2 *553:7 *553:9 104.899 
3 *553:9 *553:11 8 
4 *553:11 *649:wbs_adr_i[19] 1010.67 
5 *649:wbs_adr_i[19] *553:16 0.196786 
*END

*D_NET *554 0.152613
*CONN
*P wbs_adr_i[1] I
*I *649:wbs_adr_i[1] I *D vco_adc_wrapper
*CAP
1 wbs_adr_i[1] 0.00118191
2 *649:wbs_adr_i[1] 0.0437721
3 *554:16 8.61998e-06
4 *554:11 0.0437635
5 *554:9 0.00550933
6 *554:7 0.00669124
7 *649:wbs_adr_i[1] *582:7 0
8 *554:9 *572:9 0.000410616
9 *554:9 *573:9 0.00076936
10 *554:9 *576:9 0.0237999
11 *554:9 *587:9 0.0265115
12 *542:8 *554:9 0
13 *549:7 *649:wbs_adr_i[1] 0
14 *549:9 *554:9 0.00019458
*RES
1 wbs_adr_i[1] *554:7 33.4268 
2 *554:7 *554:9 50.288 
3 *554:9 *554:11 8 
4 *554:11 *649:wbs_adr_i[1] 1009.26 
5 *649:wbs_adr_i[1] *554:16 0.196786 
*END

*D_NET *555 0.242696
*CONN
*P wbs_adr_i[20] I
*I *649:wbs_adr_i[20] I *D vco_adc_wrapper
*CAP
1 wbs_adr_i[20] 0.00119402
2 *649:wbs_adr_i[20] 0.0438816
3 *555:16 8.61998e-06
4 *555:11 0.043873
5 *555:9 0.0156617
6 *555:7 0.0168557
7 *555:9 *560:9 0.00851045
8 *555:9 *561:9 0.0102995
9 *555:9 *562:9 0.00764872
10 *555:9 *566:9 0
11 *555:9 *602:9 0.000465409
12 *555:9 *604:9 0.00132193
13 *555:9 *613:8 0
14 *555:9 *615:8 0
15 *555:9 *617:8 0
16 *555:9 *620:8 0
17 *548:9 *555:9 0.0381129
18 *553:9 *555:9 0.0548624
*RES
1 wbs_adr_i[20] *555:7 31.3139 
2 *555:7 *555:9 107.733 
3 *555:9 *555:11 8 
4 *555:11 *649:wbs_adr_i[20] 1011.38 
5 *649:wbs_adr_i[20] *555:16 0.196786 
*END

*D_NET *556 0.197941
*CONN
*P wbs_adr_i[21] I
*I *649:wbs_adr_i[21] I *D vco_adc_wrapper
*CAP
1 wbs_adr_i[21] 0.00133374
2 *649:wbs_adr_i[21] 0.0437243
3 *556:16 8.61998e-06
4 *556:11 0.0437157
5 *556:9 0.0139124
6 *556:7 0.0152461
7 *556:9 *557:9 0.0544228
8 *556:9 *572:9 0.0121307
9 *556:9 *602:9 0.000462135
10 *528:9 *556:9 0.0049131
11 *552:9 *556:9 0.00807095
*RES
1 wbs_adr_i[21] *556:7 40.2507 
2 *556:7 *556:9 613.309 
3 *556:9 *556:11 15 
4 *556:11 *649:wbs_adr_i[21] 1009.44 
5 *649:wbs_adr_i[21] *556:16 0.196786 
*END

*D_NET *557 0.227054
*CONN
*P wbs_adr_i[22] I
*I *649:wbs_adr_i[22] I *D vco_adc_wrapper
*CAP
1 wbs_adr_i[22] 0.00130293
2 *649:wbs_adr_i[22] 0.0437174
3 *557:16 8.61998e-06
4 *557:11 0.0437088
5 *557:9 0.00823453
6 *557:7 0.00953746
7 *557:9 *558:9 0.0558662
8 *557:9 *602:9 0.000660001
9 *528:9 *557:9 0
10 *552:9 *557:9 0.00959489
11 *556:9 *557:9 0.0544228
*RES
1 wbs_adr_i[22] *557:7 39.8986 
2 *557:7 *557:9 629.507 
3 *557:9 *557:11 15 
4 *557:11 *649:wbs_adr_i[22] 1009.79 
5 *649:wbs_adr_i[22] *557:16 0.196786 
*END

*D_NET *558 0.231371
*CONN
*P wbs_adr_i[23] I
*I *649:wbs_adr_i[23] I *D vco_adc_wrapper
*CAP
1 wbs_adr_i[23] 0.00128183
2 *649:wbs_adr_i[23] 0.0448871
3 *558:16 8.61998e-06
4 *558:11 0.0448785
5 *558:9 0.00837363
6 *558:7 0.00965546
7 *558:9 *559:9 0.0573485
8 *558:9 *602:9 0.000249258
9 *558:9 *604:9 0.000467657
10 *528:9 *558:9 0
11 *553:9 *558:9 0.00835425
12 *557:9 *558:9 0.0558662
*RES
1 wbs_adr_i[23] *558:7 39.5464 
2 *558:7 *558:9 645.229 
3 *558:9 *558:11 15 
4 *558:11 *649:wbs_adr_i[23] 1010.14 
5 *649:wbs_adr_i[23] *558:16 0.196786 
*END

*D_NET *559 0.233684
*CONN
*P wbs_adr_i[24] I
*I *649:wbs_adr_i[24] I *D vco_adc_wrapper
*CAP
1 wbs_adr_i[24] 0.00126088
2 *649:wbs_adr_i[24] 0.0437281
3 *559:16 8.61998e-06
4 *559:11 0.0437195
5 *559:9 0.00851073
6 *559:7 0.00977161
7 *559:9 *560:9 0.0587942
8 *559:9 *604:9 0.000947136
9 *528:9 *559:9 0
10 *553:9 *559:9 0.00959493
11 *558:9 *559:9 0.0573485
*RES
1 wbs_adr_i[24] *559:7 39.1943 
2 *559:7 *559:9 661.428 
3 *559:9 *559:11 15 
4 *559:11 *649:wbs_adr_i[24] 1010.49 
5 *649:wbs_adr_i[24] *559:16 0.196786 
*END

*D_NET *560 0.235824
*CONN
*P wbs_adr_i[25] I
*I *649:wbs_adr_i[25] I *D vco_adc_wrapper
*CAP
1 wbs_adr_i[25] 0.0012303
2 *649:wbs_adr_i[25] 0.0437221
3 *560:16 8.61998e-06
4 *560:11 0.0437135
5 *560:9 0.00874283
6 *560:7 0.00997312
7 *560:9 *561:9 0.0602981
8 *560:9 *604:9 0.000830646
9 *528:9 *560:9 0
10 *555:9 *560:9 0.00851045
11 *559:9 *560:9 0.0587942
*RES
1 wbs_adr_i[25] *560:7 38.8421 
2 *560:7 *560:9 677.15 
3 *560:9 *560:11 15 
4 *560:11 *649:wbs_adr_i[25] 1010.85 
5 *649:wbs_adr_i[25] *560:16 0.196786 
*END

*D_NET *561 0.240324
*CONN
*P wbs_adr_i[26] I
*I *649:wbs_adr_i[26] I *D vco_adc_wrapper
*CAP
1 wbs_adr_i[26] 0.00119011
2 *649:wbs_adr_i[26] 0.0437275
3 *561:16 8.61998e-06
4 *561:11 0.0437188
5 *561:9 0.0090682
6 *561:7 0.0102583
7 *561:7 *635:4 0
8 *561:9 *562:9 0.0617552
9 *528:9 *561:9 0
10 *555:9 *561:9 0.0102995
11 *560:9 *561:9 0.0602981
*RES
1 wbs_adr_i[26] *561:7 38.49 
2 *561:7 *561:9 693.349 
3 *561:9 *561:11 15 
4 *561:11 *649:wbs_adr_i[26] 1011.2 
5 *649:wbs_adr_i[26] *561:16 0.196786 
*END

*D_NET *562 0.210951
*CONN
*P wbs_adr_i[27] I
*I *649:wbs_adr_i[27] I *D vco_adc_wrapper
*CAP
1 wbs_adr_i[27] 0.00107726
2 *649:wbs_adr_i[27] 0.0437223
3 *562:16 8.61998e-06
4 *562:11 0.0437137
5 *562:9 0.0216313
6 *562:7 0.0227086
7 *562:7 *610:12 0.000262
8 *562:9 *599:11 0
9 *548:9 *562:9 0.00842365
10 *555:9 *562:9 0.00764872
11 *561:9 *562:9 0.0617552
*RES
1 wbs_adr_i[27] *562:7 38.1379 
2 *562:7 *562:9 709.071 
3 *562:9 *562:11 15 
4 *562:11 *649:wbs_adr_i[27] 1011.55 
5 *649:wbs_adr_i[27] *562:16 0.196786 
*END

*D_NET *563 0.248896
*CONN
*P wbs_adr_i[28] I
*I *649:wbs_adr_i[28] I *D vco_adc_wrapper
*CAP
1 wbs_adr_i[28] 0.00169283
2 *649:wbs_adr_i[28] 0.0433224
3 *563:16 8.61998e-06
4 *563:11 0.0433138
5 *563:9 0.0103873
6 *563:7 0.0120802
7 *563:7 *649:wbs_adr_i[7] 0
8 *563:9 *564:9 0.066082
9 *563:9 *566:9 0.0121106
10 *563:9 *580:9 0.000866544
11 *563:9 *584:9 0.00429022
12 *563:9 *594:17 0.0547412
*RES
1 wbs_adr_i[28] *563:7 45.885 
2 *563:7 *563:9 725.269 
3 *563:9 *563:11 15 
4 *563:11 *649:wbs_adr_i[28] 1003.8 
5 *649:wbs_adr_i[28] *563:16 0.196786 
*END

*D_NET *564 0.257459
*CONN
*P wbs_adr_i[29] I
*I *649:wbs_adr_i[29] I *D vco_adc_wrapper
*CAP
1 wbs_adr_i[29] 0.00167439
2 *649:wbs_adr_i[29] 0.0433289
3 *564:16 8.61998e-06
4 *564:11 0.0433203
5 *564:9 0.0102673
6 *564:7 0.0119417
7 *564:9 *566:9 0.0146929
8 *564:9 *567:9 0.0658738
9 *564:9 *580:9 0.000268907
10 *528:9 *564:9 0
11 *563:9 *564:9 0.066082
*RES
1 wbs_adr_i[29] *564:7 45.5329 
2 *564:7 *564:9 740.991 
3 *564:9 *564:11 15 
4 *564:11 *649:wbs_adr_i[29] 1004.16 
5 *649:wbs_adr_i[29] *564:16 0.196786 
*END

*D_NET *565 0.21257
*CONN
*P wbs_adr_i[2] I
*I *649:wbs_adr_i[2] I *D vco_adc_wrapper
*CAP
1 wbs_adr_i[2] 0.00114679
2 *649:wbs_adr_i[2] 2.40452e-05
3 *565:13 0.0279044
4 *565:11 0.0278803
5 *565:9 0.00632724
6 *565:7 0.00747403
7 *565:9 *572:9 0.000783654
8 *565:9 *587:9 0.025863
9 *565:9 *598:9 0.0285557
10 *565:9 *601:9 0.00373903
11 *565:9 *605:9 0.00262837
12 *565:13 wbs_dat_o[17] 0.0788733
13 *542:8 *565:9 0
14 *549:9 *565:9 0.000101071
15 *550:9 *565:9 0.000662229
16 *551:9 *565:9 0.000606666
*RES
1 wbs_adr_i[2] *565:7 32.0182 
2 *565:7 *565:9 54.0661 
3 *565:9 *565:11 8 
4 *565:11 *565:13 1010.79 
5 *565:13 *649:wbs_adr_i[2] 0.548929 
*END

*D_NET *566 0.236852
*CONN
*P wbs_adr_i[30] I
*I *649:wbs_adr_i[30] I *D vco_adc_wrapper
*CAP
1 wbs_adr_i[30] 0.00166957
2 *649:wbs_adr_i[30] 0.0444887
3 *566:16 8.61998e-06
4 *566:11 0.0444801
5 *566:9 0.0347483
6 *566:7 0.0364179
7 *566:9 *567:9 0.0122574
8 *566:9 *580:9 0.0174848
9 *566:9 *582:9 0.00033852
10 *566:9 *583:9 0.000699924
11 *566:9 *584:9 0.00126703
12 *566:9 *588:9 0
13 *566:9 *594:17 0.00628833
14 *544:9 *566:9 0.00685852
15 *549:9 *566:9 0.00304051
16 *550:9 *566:9 0
17 *551:9 *566:9 0
18 *552:9 *566:9 0
19 *553:9 *566:9 0
20 *555:9 *566:9 0
21 *563:9 *566:9 0.0121106
22 *564:9 *566:9 0.0146929
*RES
1 wbs_adr_i[30] *566:7 38.3568 
2 *566:7 *566:9 136.412 
3 *566:9 *566:11 8 
4 *566:11 *649:wbs_adr_i[30] 1004.33 
5 *649:wbs_adr_i[30] *566:16 0.196786 
*END

*D_NET *567 0.217343
*CONN
*P wbs_adr_i[31] I
*I *649:wbs_adr_i[31] I *D vco_adc_wrapper
*CAP
1 wbs_adr_i[31] 0.00166252
2 *649:wbs_adr_i[31] 0.043308
3 *567:16 8.61998e-06
4 *567:11 0.0432994
5 *567:9 0.0242405
6 *567:7 0.025903
7 *528:9 *567:9 0
8 *544:9 *567:9 0.000789406
9 *564:9 *567:9 0.0658738
10 *566:9 *567:9 0.0122574
*RES
1 wbs_adr_i[31] *567:7 45.1807 
2 *567:7 *567:9 772.912 
3 *567:9 *567:11 15 
4 *567:11 *649:wbs_adr_i[31] 1004.51 
5 *649:wbs_adr_i[31] *567:16 0.196786 
*END

*D_NET *568 0.138808
*CONN
*P wbs_adr_i[3] I
*I *649:wbs_adr_i[3] I *D vco_adc_wrapper
*CAP
1 wbs_adr_i[3] 0.00105016
2 *649:wbs_adr_i[3] 0.0441058
3 *568:16 8.61998e-06
4 *568:11 0.0440972
5 *568:9 0.0108109
6 *568:7 0.011861
7 *649:wbs_adr_i[3] *588:7 0
8 *568:9 *575:9 0.000135181
9 *568:9 *598:9 0.0107865
10 *568:9 *613:8 0.00208236
11 *568:9 *640:9 0
12 *568:9 *645:9 0
13 *542:8 *568:9 0.0028528
14 *548:9 *568:9 0.0110179
*RES
1 wbs_adr_i[3] *568:7 29.9054 
2 *568:7 *568:9 57.9301 
3 *568:9 *568:11 8 
4 *568:11 *649:wbs_adr_i[3] 1012.78 
5 *649:wbs_adr_i[3] *568:16 0.196786 
*END

*D_NET *569 0.168965
*CONN
*P wbs_adr_i[4] I
*I *649:wbs_adr_i[4] I *D vco_adc_wrapper
*CAP
1 wbs_adr_i[4] 0.000796617
2 *649:wbs_adr_i[4] 0.0455478
3 *569:16 8.61998e-06
4 *569:11 0.0455392
5 *569:9 0.00501743
6 *569:7 0.00581405
7 *649:wbs_adr_i[4] wbs_dat_o[22] 3.39192e-05
8 *569:9 *570:9 0.0301789
9 *569:9 *607:9 0.00117949
10 *569:9 *617:8 0.000520443
11 *569:9 *620:8 0.000580824
12 *569:9 *633:8 0.0297782
13 *569:9 *640:9 0.00396929
*RES
1 wbs_adr_i[4] *569:7 32.1514 
2 *569:7 *569:9 342.697 
3 *569:9 *569:11 15 
4 *569:11 *649:wbs_adr_i[4] 1017.54 
5 *649:wbs_adr_i[4] *569:16 0.196786 
*END

*D_NET *570 0.16985
*CONN
*P wbs_adr_i[5] I
*I *649:wbs_adr_i[5] I *D vco_adc_wrapper
*CAP
1 wbs_adr_i[5] 0.000775512
2 *649:wbs_adr_i[5] 0.0444668
3 *570:16 8.61998e-06
4 *570:11 0.0444582
5 *570:9 0.00521868
6 *570:7 0.0059942
7 *649:wbs_adr_i[5] wbs_dat_o[24] 0
8 *649:wbs_adr_i[5] *592:5 0
9 *570:9 *571:9 0.0316803
10 *570:9 *607:9 9.77922e-06
11 *570:9 *620:8 0.00129839
12 *570:9 *622:8 0.000934697
13 *570:9 *623:8 0.00147434
14 *570:9 *641:9 0.00335132
15 *569:9 *570:9 0.0301789
*RES
1 wbs_adr_i[5] *570:7 31.7993 
2 *570:7 *570:9 358.419 
3 *570:9 *570:11 15 
4 *570:11 *649:wbs_adr_i[5] 1017.89 
5 *649:wbs_adr_i[5] *570:16 0.196786 
*END

*D_NET *571 0.173685
*CONN
*P wbs_adr_i[6] I
*I *649:wbs_adr_i[6] I *D vco_adc_wrapper
*CAP
1 wbs_adr_i[6] 0.000754407
2 *649:wbs_adr_i[6] 0.0445076
3 *571:16 8.61998e-06
4 *571:11 0.044499
5 *571:9 0.00567236
6 *571:7 0.00642677
7 *649:wbs_adr_i[6] *594:7 4.66714e-05
8 *571:9 *620:8 0.00135315
9 *571:9 *623:8 0.00107487
10 *571:9 *625:8 0.00125218
11 *571:9 *637:8 0.0319893
12 *571:9 *641:9 0.00441988
13 *570:9 *571:9 0.0316803
*RES
1 wbs_adr_i[6] *571:7 31.4471 
2 *571:7 *571:9 374.618 
3 *571:9 *571:11 15 
4 *571:11 *649:wbs_adr_i[6] 1018.24 
5 *649:wbs_adr_i[6] *571:16 0.196786 
*END

*D_NET *572 0.144387
*CONN
*P wbs_adr_i[7] I
*I *649:wbs_adr_i[7] I *D vco_adc_wrapper
*CAP
1 wbs_adr_i[7] 0.00135292
2 *649:wbs_adr_i[7] 0.0439309
3 *572:16 8.61998e-06
4 *572:11 0.0439223
5 *572:9 0.0105588
6 *572:7 0.0119117
7 *572:9 *601:9 0.00104944
8 *572:9 *602:9 4.39889e-05
9 *572:9 *605:9 0.00754226
10 *528:9 *572:9 0.00714385
11 *550:9 *572:9 0.000312285
12 *551:9 *572:9 0.00328488
13 *554:9 *572:9 0.000410616
14 *556:9 *572:9 0.0121307
15 *563:7 *649:wbs_adr_i[7] 0
16 *565:9 *572:9 0.000783654
*RES
1 wbs_adr_i[7] *572:7 40.6029 
2 *572:7 *572:9 390.34 
3 *572:9 *572:11 15 
4 *572:11 *649:wbs_adr_i[7] 1009.09 
5 *649:wbs_adr_i[7] *572:16 0.196786 
*END

*D_NET *573 0.167321
*CONN
*P wbs_adr_i[8] I
*I *649:wbs_adr_i[8] I *D vco_adc_wrapper
*CAP
1 wbs_adr_i[8] 0.00152168
2 *649:wbs_adr_i[8] 0.0438025
3 *573:16 8.61998e-06
4 *573:11 0.0437939
5 *573:9 0.00951903
6 *573:7 0.0110407
7 *573:9 *574:9 0.0376183
8 *573:9 *576:9 0.000419297
9 *528:19 *573:9 0
10 *543:9 *573:9 0.00441348
11 *549:9 *573:9 0.0144144
12 *554:9 *573:9 0.00076936
*RES
1 wbs_adr_i[8] *573:7 36.2439 
2 *573:7 *573:9 73.3003 
3 *573:9 *573:11 8 
4 *573:11 *649:wbs_adr_i[8] 1006.45 
5 *649:wbs_adr_i[8] *573:16 0.196786 
*END

*D_NET *574 0.186676
*CONN
*P wbs_adr_i[9] I
*I *649:wbs_adr_i[9] I *D vco_adc_wrapper
*CAP
1 wbs_adr_i[9] 0.00141026
2 *649:wbs_adr_i[9] 0.0443591
3 *574:16 8.61998e-06
4 *574:11 0.0443504
5 *574:9 0.00838774
6 *574:7 0.009798
7 *649:wbs_adr_i[9] *599:13 0
8 *649:wb_clk_i *574:7 0.000437789
9 *528:19 *574:9 0
10 *544:9 *574:9 0.0391415
11 *549:9 *574:9 0.0011643
12 *573:9 *574:9 0.0376183
*RES
1 wbs_adr_i[9] *574:7 36.9482 
2 *574:7 *574:9 76.1339 
3 *574:9 *574:11 8 
4 *574:11 *649:wbs_adr_i[9] 1005.74 
5 *649:wbs_adr_i[9] *574:16 0.196786 
*END

*D_NET *575 0.147794
*CONN
*P wbs_cyc_i I
*I *649:wbs_cyc_i I *D vco_adc_wrapper
*CAP
1 wbs_cyc_i 0.000824559
2 *649:wbs_cyc_i 0.0441385
3 *575:16 8.61998e-06
4 *575:11 0.0441299
5 *575:9 0.0054227
6 *575:7 0.00624725
7 *649:wbs_cyc_i wbs_dat_o[10] 0
8 *575:9 *642:9 0.00334844
9 *575:9 *645:9 0.0215997
10 *540:11 *575:9 0.000242522
11 *542:8 *575:9 0.0216969
12 *545:7 *649:wbs_cyc_i 0
13 *568:9 *575:9 0.000135181
*RES
1 wbs_cyc_i *575:7 26.3839 
2 *575:7 *575:9 43.5904 
3 *575:9 *575:11 8 
4 *575:11 *649:wbs_cyc_i 1016.3 
5 *649:wbs_cyc_i *575:16 0.196786 
*END

*D_NET *576 0.148705
*CONN
*P wbs_dat_i[0] I
*I *649:wbs_dat_i[0] I *D vco_adc_wrapper
*CAP
1 wbs_dat_i[0] 0.00119969
2 *649:wbs_dat_i[0] 0.0436209
3 *576:16 8.61998e-06
4 *576:11 0.0436123
5 *576:9 0.00499111
6 *576:7 0.0061908
7 *649:wbs_dat_i[0] *580:7 0.000384327
8 *528:15 *649:wbs_dat_i[0] 0
9 *542:8 *576:9 0
10 *543:9 *576:9 0.0244782
11 *554:9 *576:9 0.0237999
12 *573:9 *576:9 0.000419297
*RES
1 wbs_dat_i[0] *576:7 34.1311 
2 *576:7 *576:9 47.4544 
3 *576:9 *576:11 8 
4 *576:11 *649:wbs_dat_i[0] 1008.56 
5 *649:wbs_dat_i[0] *576:16 0.196786 
*END

*D_NET *577 0.170077
*CONN
*P wbs_dat_i[10] I
*I *649:wbs_dat_i[10] I *D vco_adc_wrapper
*CAP
1 wbs_dat_i[10] 0.0017684
2 *649:wbs_dat_i[10] 0.0434598
3 *577:16 8.61998e-06
4 *577:11 0.0434512
5 *577:9 0.0145349
6 *577:7 0.0163033
7 *577:9 *578:9 0.0400219
8 *528:19 *577:9 0.00539537
9 *542:4 *577:7 0
10 *544:9 *577:9 0.000315397
11 *545:9 *577:9 0.00481777
*RES
1 wbs_dat_i[10] *577:7 41.1739 
2 *577:7 *577:9 79.9979 
3 *577:9 *577:11 8 
4 *577:11 *649:wbs_dat_i[10] 1001.52 
5 *649:wbs_dat_i[10] *577:16 0.196786 
*END

*D_NET *578 0.201174
*CONN
*P wbs_dat_i[11] I
*I *649:wbs_dat_i[11] I *D vco_adc_wrapper
*CAP
1 wbs_dat_i[11] 0.00170806
2 *649:wbs_dat_i[11] 0.0434778
3 *578:16 8.61998e-06
4 *578:11 0.0434692
5 *578:9 0.0106831
6 *578:7 0.0123912
7 *578:9 *579:9 0.0415716
8 *578:9 *581:9 0.00737119
9 *544:9 *578:9 0.000471157
10 *545:9 *578:9 0
11 *577:9 *578:9 0.0400219
*RES
1 wbs_dat_i[11] *578:7 40.4696 
2 *578:7 *578:9 82.8315 
3 *578:9 *578:11 8 
4 *578:11 *649:wbs_dat_i[11] 1002.22 
5 *649:wbs_dat_i[11] *578:16 0.196786 
*END

*D_NET *579 0.212367
*CONN
*P wbs_dat_i[12] I
*I *649:wbs_dat_i[12] I *D vco_adc_wrapper
*CAP
1 wbs_dat_i[12] 0.00168011
2 *649:wbs_dat_i[12] 0.0435034
3 *579:16 8.61998e-06
4 *579:11 0.0434947
5 *579:9 0.0112726
6 *579:7 0.0129527
7 *579:7 *649:wbs_we_i 0
8 *579:9 *580:9 0.0430797
9 *579:9 *582:9 0.00656997
10 *579:9 *583:9 0.00760508
11 *579:9 *588:9 0
12 *544:9 *579:9 0.000628362
13 *578:9 *579:9 0.0415716
*RES
1 wbs_dat_i[12] *579:7 39.7654 
2 *579:7 *579:9 85.7509 
3 *579:9 *579:11 8 
4 *579:11 *649:wbs_dat_i[12] 1002.92 
5 *649:wbs_dat_i[12] *579:16 0.196786 
*END

*D_NET *580 0.20457
*CONN
*P wbs_dat_i[13] I
*I *649:wbs_dat_i[13] I *D vco_adc_wrapper
*CAP
1 wbs_dat_i[13] 0.00155909
2 *649:wbs_dat_i[13] 0.0435421
3 *580:16 8.61998e-06
4 *580:11 0.0435335
5 *580:9 0.0124988
6 *580:7 0.0140579
7 *580:9 *584:9 0.0085999
8 *580:9 *588:9 0
9 *580:9 *594:17 0.00285452
10 *649:wbs_dat_i[0] *580:7 0.000384327
11 *528:15 *580:7 0
12 *544:9 *580:9 0.0158318
13 *563:9 *580:9 0.000866544
14 *564:9 *580:9 0.000268907
15 *566:9 *580:9 0.0174848
16 *579:9 *580:9 0.0430797
*RES
1 wbs_dat_i[13] *580:7 39.0611 
2 *580:7 *580:9 88.5845 
3 *580:9 *580:11 8 
4 *580:11 *649:wbs_dat_i[13] 1003.63 
5 *649:wbs_dat_i[13] *580:16 0.196786 
*END

*D_NET *581 0.176149
*CONN
*P wbs_dat_i[14] I
*I *649:wbs_dat_i[14] I *D vco_adc_wrapper
*CAP
1 wbs_dat_i[14] 0.00176503
2 *649:wbs_dat_i[14] 0.0445603
3 *581:16 8.61998e-06
4 *581:11 0.0445517
5 *581:9 0.0152472
6 *581:7 0.0170123
7 *581:7 *649:wbs_sel_i[0] 0
8 *581:9 *582:9 0.0456325
9 *578:9 *581:9 0.00737119
*RES
1 wbs_dat_i[14] *581:7 47.6457 
2 *581:7 *581:9 507.065 
3 *581:9 *581:11 15 
4 *581:11 *649:wbs_dat_i[14] 1002.04 
5 *649:wbs_dat_i[14] *581:16 0.196786 
*END

*D_NET *582 0.205128
*CONN
*P wbs_dat_i[15] I
*I *649:wbs_dat_i[15] I *D vco_adc_wrapper
*CAP
1 wbs_dat_i[15] 0.00174552
2 *649:wbs_dat_i[15] 0.0434264
3 *582:16 8.61998e-06
4 *582:11 0.0434178
5 *582:9 0.00756909
6 *582:7 0.00931461
7 *582:9 *583:9 0.0471045
8 *649:wbs_adr_i[1] *582:7 0
9 *566:9 *582:9 0.00033852
10 *579:9 *582:9 0.00656997
11 *581:9 *582:9 0.0456325
*RES
1 wbs_dat_i[15] *582:7 47.2936 
2 *582:7 *582:9 523.264 
3 *582:9 *582:11 15 
4 *582:11 *649:wbs_dat_i[15] 1002.4 
5 *649:wbs_dat_i[15] *582:16 0.196786 
*END

*D_NET *583 0.209807
*CONN
*P wbs_dat_i[16] I
*I *649:wbs_dat_i[16] I *D vco_adc_wrapper
*CAP
1 wbs_dat_i[16] 0.00172522
2 *649:wbs_dat_i[16] 0.0434303
3 *583:16 8.61998e-06
4 *583:11 0.0434216
5 *583:9 0.00773164
6 *583:7 0.00945686
7 *583:9 *584:9 0.0486231
8 *566:9 *583:9 0.000699924
9 *579:9 *583:9 0.00760508
10 *582:9 *583:9 0.0471045
*RES
1 wbs_dat_i[16] *583:7 46.9414 
2 *583:7 *583:9 538.986 
3 *583:9 *583:11 15 
4 *583:11 *649:wbs_dat_i[16] 1002.75 
5 *649:wbs_dat_i[16] *583:16 0.196786 
*END

*D_NET *584 0.201333
*CONN
*P wbs_dat_i[17] I
*I *649:wbs_dat_i[17] I *D vco_adc_wrapper
*CAP
1 wbs_dat_i[17] 0.00173344
2 *649:wbs_dat_i[17] 0.0434448
3 *584:16 8.61998e-06
4 *584:11 0.0434362
5 *584:9 0.0111649
6 *584:7 0.0128983
7 *584:9 *594:17 0.025867
8 *563:9 *584:9 0.00429022
9 *566:9 *584:9 0.00126703
10 *580:9 *584:9 0.0085999
11 *583:9 *584:9 0.0486231
*RES
1 wbs_dat_i[17] *584:7 46.5893 
2 *584:7 *584:9 555.184 
3 *584:9 *584:11 15 
4 *584:11 *649:wbs_dat_i[17] 1003.1 
5 *649:wbs_dat_i[17] *584:16 0.196786 
*END

*D_NET *585 0.230714
*CONN
*P wbs_dat_i[18] I
*I *649:wbs_dat_i[18] I *D vco_adc_wrapper
*CAP
1 wbs_dat_i[18] 0.00191314
2 *649:wbs_dat_i[18] 0.0430582
3 *585:16 8.61998e-06
4 *585:11 0.0430496
5 *585:9 0.0135219
6 *585:7 0.015435
7 *585:7 *649:wbs_dat_i[2] 0.000533717
8 *585:9 *586:9 0.0537928
9 *585:9 *589:9 0.00882549
10 *585:9 *590:9 0.0101154
11 *585:9 *612:8 0.039971
12 *545:9 *585:9 0.000489202
*RES
1 wbs_dat_i[18] *585:7 46.8082 
2 *585:7 *585:9 102.924 
3 *585:9 *585:11 8 
4 *585:11 *649:wbs_dat_i[18] 995.881 
5 *649:wbs_dat_i[18] *585:16 0.196786 
*END

*D_NET *586 0.242419
*CONN
*P wbs_dat_i[19] I
*I *649:wbs_dat_i[19] I *D vco_adc_wrapper
*CAP
1 wbs_dat_i[19] 0.00207522
2 *649:wbs_dat_i[19] 0.0431093
3 *586:16 8.61998e-06
4 *586:11 0.0431007
5 *586:9 0.0114699
6 *586:7 0.0135451
7 *586:7 *649:wbs_sel_i[2] 0
8 *586:9 *588:9 0.05531
9 *586:9 *589:9 0.000155832
10 *586:9 *590:9 0.000176157
11 *586:9 *591:9 0.00899032
12 *586:9 *592:9 0.00983504
13 *545:9 *586:9 0.000850193
14 *585:9 *586:9 0.0537928
*RES
1 wbs_dat_i[19] *586:7 46.1039 
2 *586:7 *586:9 105.844 
3 *586:9 *586:11 8 
4 *586:11 *649:wbs_dat_i[19] 996.585 
5 *649:wbs_dat_i[19] *586:16 0.196786 
*END

*D_NET *587 0.153696
*CONN
*P wbs_dat_i[1] I
*I *649:wbs_dat_i[1] I *D vco_adc_wrapper
*CAP
1 wbs_dat_i[1] 0.0011669
2 *649:wbs_dat_i[1] 0.0438263
3 *587:16 8.61998e-06
4 *587:11 0.0438177
5 *587:9 0.00546164
6 *587:7 0.00662854
7 *649:wbs_dat_i[1] wbs_dat_o[15] 0
8 *542:8 *587:9 0
9 *549:9 *587:9 0.000412027
10 *550:7 *649:wbs_dat_i[1] 0
11 *554:9 *587:9 0.0265115
12 *565:9 *587:9 0.025863
*RES
1 wbs_dat_i[1] *587:7 32.7225 
2 *587:7 *587:9 51.2325 
3 *587:9 *587:11 8 
4 *587:11 *649:wbs_dat_i[1] 1009.97 
5 *649:wbs_dat_i[1] *587:16 0.196786 
*END

*D_NET *588 0.238172
*CONN
*P wbs_dat_i[20] I
*I *649:wbs_dat_i[20] I *D vco_adc_wrapper
*CAP
1 wbs_dat_i[20] 0.00203371
2 *649:wbs_dat_i[20] 0.044287
3 *588:16 8.61998e-06
4 *588:11 0.0442784
5 *588:9 0.0178236
6 *588:7 0.0198573
7 *588:9 *593:9 0.00896128
8 *588:9 *595:9 0.0189892
9 *649:wbs_adr_i[3] *588:7 0
10 *545:9 *588:9 0.0266227
11 *566:9 *588:9 0
12 *579:9 *588:9 0
13 *580:9 *588:9 0
14 *586:9 *588:9 0.05531
*RES
1 wbs_dat_i[20] *588:7 45.3996 
2 *588:7 *588:9 108.677 
3 *588:9 *588:11 8 
4 *588:11 *649:wbs_dat_i[20] 997.289 
5 *649:wbs_dat_i[20] *588:16 0.196786 
*END

*D_NET *589 0.192376
*CONN
*P wbs_dat_i[21] I
*I *649:wbs_dat_i[21] I *D vco_adc_wrapper
*CAP
1 wbs_dat_i[21] 0.00197696
2 *649:wbs_dat_i[21] 0.0430007
3 *589:16 8.61998e-06
4 *589:11 0.0429921
5 *589:9 0.0190649
6 *589:7 0.0190649
7 *589:5 0.00197696
8 *589:5 *633:4 0.000438661
9 *589:9 *590:9 0.0548711
10 *585:9 *589:9 0.00882549
11 *586:9 *589:9 0.000155832
*RES
1 wbs_dat_i[21] *589:5 39.3364 
2 *589:5 *589:7 15 
3 *589:7 *589:9 619.026 
4 *589:9 *589:11 15 
5 *589:11 *649:wbs_dat_i[21] 995.352 
6 *649:wbs_dat_i[21] *589:16 0.196786 
*END

*D_NET *590 0.229109
*CONN
*P wbs_dat_i[22] I
*I *649:wbs_dat_i[22] I *D vco_adc_wrapper
*CAP
1 wbs_dat_i[22] 0.00214649
2 *649:wbs_dat_i[22] 0.0430039
3 *590:16 8.61998e-06
4 *590:11 0.0429953
5 *590:9 0.00866656
6 *590:7 0.00866656
7 *590:5 0.00214649
8 *590:9 *591:9 0.056312
9 *585:9 *590:9 0.0101154
10 *586:9 *590:9 0.000176157
11 *589:9 *590:9 0.0548711
*RES
1 wbs_dat_i[22] *590:5 38.9843 
2 *590:5 *590:7 15 
3 *590:7 *590:9 634.748 
4 *590:9 *590:11 15 
5 *590:11 *649:wbs_dat_i[22] 995.705 
6 *649:wbs_dat_i[22] *590:16 0.196786 
*END

*D_NET *591 0.231059
*CONN
*P wbs_dat_i[23] I
*I *649:wbs_dat_i[23] I *D vco_adc_wrapper
*CAP
1 wbs_dat_i[23] 0.00200165
2 *649:wbs_dat_i[23] 0.0430194
3 *591:16 8.61998e-06
4 *591:11 0.0430108
5 *591:9 0.00882159
6 *591:7 0.00882159
7 *591:5 0.00200165
8 *591:5 *649:wbs_dat_i[4] 0.000285513
9 *591:9 *592:9 0.0577858
10 *586:9 *591:9 0.00899032
11 *590:9 *591:9 0.056312
*RES
1 wbs_dat_i[23] *591:5 38.6321 
2 *591:5 *591:7 15 
3 *591:7 *591:9 650.47 
4 *591:9 *591:11 15 
5 *591:11 *649:wbs_dat_i[23] 996.057 
6 *649:wbs_dat_i[23] *591:16 0.196786 
*END

*D_NET *592 0.235239
*CONN
*P wbs_dat_i[24] I
*I *649:wbs_dat_i[24] I *D vco_adc_wrapper
*CAP
1 wbs_dat_i[24] 0.00212356
2 *649:wbs_dat_i[24] 0.0430348
3 *592:16 8.61998e-06
4 *592:11 0.0430262
5 *592:9 0.00903238
6 *592:7 0.00903238
7 *592:5 0.00212356
8 *592:9 *593:9 0.0592362
9 *649:wbs_adr_i[5] *592:5 0
10 *586:9 *592:9 0.00983504
11 *591:9 *592:9 0.0577858
*RES
1 wbs_dat_i[24] *592:5 38.28 
2 *592:5 *592:7 15 
3 *592:7 *592:9 666.669 
4 *592:9 *592:11 15 
5 *592:11 *649:wbs_dat_i[24] 996.409 
6 *649:wbs_dat_i[24] *592:16 0.196786 
*END

*D_NET *593 0.236538
*CONN
*P wbs_dat_i[25] I
*I *649:wbs_dat_i[25] I *D vco_adc_wrapper
*CAP
1 wbs_dat_i[25] 0.00209304
2 *649:wbs_dat_i[25] 0.043039
3 *593:16 8.61998e-06
4 *593:11 0.0430303
5 *593:9 0.00951611
6 *593:7 0.00951611
7 *593:5 0.00209304
8 *593:5 *649:wbs_dat_i[5] 0
9 *593:5 *604:13 0
10 *593:9 *595:9 0.0590446
11 *588:9 *593:9 0.00896128
12 *592:9 *593:9 0.0592362
*RES
1 wbs_dat_i[25] *593:5 37.9279 
2 *593:5 *593:7 15 
3 *593:7 *593:9 682.391 
4 *593:9 *593:11 15 
5 *593:11 *649:wbs_dat_i[25] 996.761 
6 *649:wbs_dat_i[25] *593:16 0.196786 
*END

*D_NET *594 0.225733
*CONN
*P wbs_dat_i[26] I
*I *649:wbs_dat_i[26] I *D vco_adc_wrapper
*CAP
1 wbs_dat_i[26] 0.00090181
2 *649:wbs_dat_i[26] 0.0444896
3 *594:24 8.61998e-06
4 *594:19 0.044481
5 *594:17 0.0121916
6 *594:15 0.01302
7 *594:9 0.00401294
8 *594:7 0.0040864
9 *594:9 *599:11 0.00058131
10 *594:9 *607:9 0.0105746
11 *594:9 *617:8 0.00158745
12 *594:15 *649:wbs_dat_i[9] 0
13 *649:wbs_adr_i[6] *594:7 4.66714e-05
14 *563:9 *594:17 0.0547412
15 *566:9 *594:17 0.00628833
16 *580:9 *594:17 0.00285452
17 *584:9 *594:17 0.025867
*RES
1 wbs_dat_i[26] *594:7 33.2079 
2 *594:7 *594:9 113.535 
3 *594:9 *594:15 43.1743 
4 *594:15 *594:17 585.199 
5 *594:17 *594:19 15 
6 *594:19 *649:wbs_dat_i[26] 1003.45 
7 *649:wbs_dat_i[26] *594:24 0.196786 
*END

*D_NET *595 0.213636
*CONN
*P wbs_dat_i[27] I
*I *649:wbs_dat_i[27] I *D vco_adc_wrapper
*CAP
1 wbs_dat_i[27] 0.00206743
2 *649:wbs_dat_i[27] 0.0430443
3 *595:16 8.61998e-06
4 *595:11 0.0430357
5 *595:9 0.0226895
6 *595:7 0.0226895
7 *595:5 0.00206743
8 *588:9 *595:9 0.0189892
9 *593:9 *595:9 0.0590446
*RES
1 wbs_dat_i[27] *595:5 37.5757 
2 *595:5 *595:7 15 
3 *595:7 *595:9 714.311 
4 *595:9 *595:11 15 
5 *595:11 *649:wbs_dat_i[27] 997.113 
6 *649:wbs_dat_i[27] *595:16 0.196786 
*END

*D_NET *596 0.254862
*CONN
*P wbs_dat_i[28] I
*I *649:wbs_dat_i[28] I *D vco_adc_wrapper
*CAP
1 wbs_dat_i[28] 0.000764019
2 *649:wbs_dat_i[28] 0.045164
3 *596:16 8.61998e-06
4 *596:11 0.0451554
5 *596:9 0.0101829
6 *596:7 0.0109469
7 *596:9 *625:8 0.0598318
8 *596:9 *627:8 0.0147034
9 *596:9 *629:8 0.066099
10 *596:9 *637:8 0.00200574
*RES
1 wbs_dat_i[28] *596:7 31.4471 
2 *596:7 *596:9 730.51 
3 *596:9 *596:11 15 
4 *596:11 *649:wbs_dat_i[28] 1018.24 
5 *649:wbs_dat_i[28] *596:16 0.196786 
*END

*D_NET *597 0.259362
*CONN
*P wbs_dat_i[29] I
*I *649:wbs_dat_i[29] I *D vco_adc_wrapper
*CAP
1 wbs_dat_i[29] 0.0447861
2 *649:wbs_dat_i[29] 0.000476619
3 *597:16 8.61998e-06
4 *597:9 0.010068
5 *597:7 0.0096
6 *597:5 0.0447861
7 *597:5 *637:4 0
8 *597:9 *599:17 0.0656066
9 *597:9 *606:9 0.00125824
10 *597:9 *609:8 0.00227173
11 *597:9 *610:10 0.00041276
12 *597:9 *624:8 0.0108866
13 *597:9 *628:8 0.00176925
14 *597:9 *631:8 0.0674315
*RES
1 wbs_dat_i[29] *597:5 1024.28 
2 *597:5 *597:7 15 
3 *597:7 *597:9 746.232 
4 *597:9 *649:wbs_dat_i[29] 25.4089 
5 *649:wbs_dat_i[29] *597:16 0.196786 
*END

*D_NET *598 0.167453
*CONN
*P wbs_dat_i[2] I
*I *649:wbs_dat_i[2] I *D vco_adc_wrapper
*CAP
1 wbs_dat_i[2] 0.00110245
2 *649:wbs_dat_i[2] 0.0438002
3 *598:16 8.61998e-06
4 *598:11 0.0437915
5 *598:9 0.00750169
6 *598:7 0.00860414
7 *598:9 *601:9 0.00105699
8 *598:9 *602:9 0.00413214
9 *598:9 *603:9 0.00551168
10 *598:9 *604:9 0.00383562
11 *542:8 *598:9 0
12 *548:9 *598:9 0.00770658
13 *551:9 *598:9 0.000230738
14 *552:9 *598:9 0.000294671
15 *565:9 *598:9 0.0285557
16 *568:9 *598:9 0.0107865
17 *585:7 *649:wbs_dat_i[2] 0.000533717
*RES
1 wbs_dat_i[2] *598:7 31.3139 
2 *598:7 *598:9 55.0965 
3 *598:9 *598:11 8 
4 *598:11 *649:wbs_dat_i[2] 1011.38 
5 *649:wbs_dat_i[2] *598:16 0.196786 
*END

*D_NET *599 0.221213
*CONN
*P wbs_dat_i[30] I
*I *649:wbs_dat_i[30] I *D vco_adc_wrapper
*CAP
1 wbs_dat_i[30] 0.00100762
2 *649:wbs_dat_i[30] 0.000451577
3 *599:24 8.61998e-06
4 *599:17 0.0209829
5 *599:15 0.0205399
6 *599:13 0.0449914
7 *599:11 0.0460121
8 *599:7 0.00202829
9 *599:11 *613:8 0.00042503
10 *599:17 *609:8 0.00579761
11 *599:17 *624:8 0.00942963
12 *599:17 *626:8 0
13 *599:17 *628:8 0.00156511
14 *599:17 *631:8 0.00178532
15 *649:wbs_adr_i[9] *599:13 0
16 *562:9 *599:11 0
17 *594:9 *599:11 0.00058131
18 *597:9 *599:17 0.0656066
*RES
1 wbs_dat_i[30] *599:7 34.6164 
2 *599:7 *599:11 40.8721 
3 *599:11 *599:13 1005.16 
4 *599:13 *599:15 15 
5 *599:15 *599:17 736.704 
6 *599:17 *649:wbs_dat_i[30] 25.0568 
7 *649:wbs_dat_i[30] *599:24 0.196786 
*END

*D_NET *600 0.28176
*CONN
*P wbs_dat_i[31] I
*I *649:wbs_dat_i[31] I *D vco_adc_wrapper
*CAP
1 wbs_dat_i[31] 0.0286082
2 *649:wbs_dat_i[31] 0.000495282
3 *600:16 8.61998e-06
4 *600:9 0.0235173
5 *600:7 0.0230306
6 *600:5 0.0286082
7 *600:5 *638:4 0.0793393
8 *600:9 *628:8 0.0276021
9 *600:9 *631:8 0.07055
*RES
1 wbs_dat_i[31] *600:5 1023.58 
2 *600:5 *600:7 15 
3 *600:7 *600:9 778.153 
4 *600:9 *649:wbs_dat_i[31] 26.1132 
5 *649:wbs_dat_i[31] *600:16 0.196786 
*END

*D_NET *601 0.1562
*CONN
*P wbs_dat_i[3] I
*I *649:wbs_dat_i[3] I *D vco_adc_wrapper
*CAP
1 wbs_dat_i[3] 0.00118266
2 *649:wbs_dat_i[3] 0.0439485
3 *601:16 8.61998e-06
4 *601:11 0.0439399
5 *601:9 0.00627106
6 *601:7 0.00745371
7 *601:9 *602:9 0.0275631
8 *601:9 *605:9 0.0193391
9 *552:9 *601:9 0.00017917
10 *553:9 *601:9 0.000468949
11 *565:9 *601:9 0.00373903
12 *572:9 *601:9 0.00104944
13 *598:9 *601:9 0.00105699
*RES
1 wbs_dat_i[3] *601:7 39.1943 
2 *601:7 *601:9 326.499 
3 *601:9 *601:11 15 
4 *601:11 *649:wbs_dat_i[3] 1010.49 
5 *649:wbs_dat_i[3] *601:16 0.196786 
*END

*D_NET *602 0.164196
*CONN
*P wbs_dat_i[4] I
*I *649:wbs_dat_i[4] I *D vco_adc_wrapper
*CAP
1 wbs_dat_i[4] 0.00118053
2 *649:wbs_dat_i[4] 0.0438927
3 *602:16 8.61998e-06
4 *602:11 0.0438841
5 *602:9 0.00523439
6 *602:7 0.00641492
7 *602:9 *603:9 0.000936197
8 *602:9 *604:9 0.0283785
9 *548:9 *602:9 0.000162608
10 *553:9 *602:9 0.000242106
11 *555:9 *602:9 0.000465409
12 *556:9 *602:9 0.000462135
13 *557:9 *602:9 0.000660001
14 *558:9 *602:9 0.000249258
15 *572:9 *602:9 4.39889e-05
16 *591:5 *649:wbs_dat_i[4] 0.000285513
17 *598:9 *602:9 0.00413214
18 *601:9 *602:9 0.0275631
*RES
1 wbs_dat_i[4] *602:7 38.8421 
2 *602:7 *602:9 347.938 
3 *602:9 *602:11 15 
4 *602:11 *649:wbs_dat_i[4] 1010.85 
5 *649:wbs_dat_i[4] *602:16 0.196786 
*END

*D_NET *603 0.156684
*CONN
*P wbs_dat_i[5] I
*I *649:wbs_dat_i[5] I *D vco_adc_wrapper
*CAP
1 wbs_dat_i[5] 0.00114795
2 *649:wbs_dat_i[5] 0.0441066
3 *603:16 8.61998e-06
4 *603:11 0.044098
5 *603:9 0.0114491
6 *603:7 0.012597
7 *603:9 *604:9 0.0315057
8 *548:9 *603:9 0.00532302
9 *593:5 *649:wbs_dat_i[5] 0
10 *598:9 *603:9 0.00551168
11 *602:9 *603:9 0.000936197
*RES
1 wbs_dat_i[5] *603:7 38.1379 
2 *603:7 *603:9 363.66 
3 *603:9 *603:11 15 
4 *603:11 *649:wbs_dat_i[5] 1011.55 
5 *649:wbs_dat_i[5] *603:16 0.196786 
*END

*D_NET *604 0.173575
*CONN
*P wbs_dat_i[6] I
*I *649:wbs_dat_i[6] I *D vco_adc_wrapper
*CAP
1 wbs_dat_i[6] 0.00119775
2 *649:wbs_dat_i[6] 0.000549116
3 *604:24 8.61998e-06
4 *604:17 0.000992995
5 *604:13 0.0440206
6 *604:11 0.0435681
7 *604:9 0.00493985
8 *604:7 0.0061376
9 *604:13 *635:4 0
10 *604:17 *605:17 0.00259142
11 *604:17 *609:8 0.001438
12 *604:17 *624:8 0.000450659
13 *548:9 *604:9 0.000183817
14 *553:9 *604:9 0.000209705
15 *555:9 *604:9 0.00132193
16 *558:9 *604:9 0.000467657
17 *559:9 *604:9 0.000947136
18 *560:9 *604:9 0.000830646
19 *593:5 *604:13 0
20 *598:9 *604:9 0.00383562
21 *602:9 *604:9 0.0283785
22 *603:9 *604:9 0.0315057
*RES
1 wbs_dat_i[6] *604:7 38.49 
2 *604:7 *604:9 352.226 
3 *604:9 *604:11 15 
4 *604:11 *604:13 1000.93 
5 *604:13 *604:17 42.7779 
6 *604:17 *649:wbs_dat_i[6] 25.4089 
7 *649:wbs_dat_i[6] *604:24 0.196786 
*END

*D_NET *605 0.162272
*CONN
*P wbs_dat_i[7] I
*I *649:wbs_dat_i[7] I *D vco_adc_wrapper
*CAP
1 wbs_dat_i[7] 0.00130262
2 *649:wbs_dat_i[7] 0.000570221
3 *605:24 8.61998e-06
4 *605:17 0.00376991
5 *605:15 0.00320831
6 *605:13 0.0433688
7 *605:11 0.0433688
8 *605:9 0.00390375
9 *605:7 0.00520637
10 *605:17 *606:9 0.0171258
11 *605:17 *609:8 0.00520039
12 *605:17 *624:8 0.000382331
13 *605:17 *636:8 0.00245498
14 *552:9 *605:9 0.000300439
15 *565:9 *605:9 0.00262837
16 *572:9 *605:9 0.00754226
17 *601:9 *605:9 0.0193391
18 *604:17 *605:17 0.00259142
*RES
1 wbs_dat_i[7] *605:7 39.5464 
2 *605:7 *605:9 212.156 
3 *605:9 *605:11 15 
4 *605:11 *605:13 999.526 
5 *605:13 *605:15 15 
6 *605:15 *605:17 183.57 
7 *605:17 *649:wbs_dat_i[7] 25.7611 
8 *649:wbs_dat_i[7] *605:24 0.196786 
*END

*D_NET *606 0.157263
*CONN
*P wbs_dat_i[8] I
*I *649:wbs_dat_i[8] I *D vco_adc_wrapper
*CAP
1 wbs_dat_i[8] 0.0456222
2 *649:wbs_dat_i[8] 0.000608719
3 *606:16 8.61998e-06
4 *606:9 0.0146073
5 *606:7 0.0140072
6 *606:5 0.0456222
7 *649:wbs_dat_i[8] wbs_dat_o[30] 5.99567e-06
8 *606:9 *609:8 0.00362954
9 *606:9 *624:8 0.000659272
10 *606:9 *628:8 0.00128541
11 *606:9 *631:8 0.000142173
12 *606:9 *636:8 0.00964462
13 *606:9 *639:8 0.000148011
14 *606:9 *643:9 0.00288749
15 *597:9 *606:9 0.00125824
16 *605:17 *606:9 0.0171258
*RES
1 wbs_dat_i[8] *606:5 1023.58 
2 *606:5 *606:7 15 
3 *606:7 *606:9 411.779 
4 *606:9 *649:wbs_dat_i[8] 26.1132 
5 *649:wbs_dat_i[8] *606:16 0.196786 
*END

*D_NET *607 0.186416
*CONN
*P wbs_dat_i[9] I
*I *649:wbs_dat_i[9] I *D vco_adc_wrapper
*CAP
1 wbs_dat_i[9] 0.000898296
2 *649:wbs_dat_i[9] 0.0444705
3 *607:16 8.61998e-06
4 *607:11 0.0444619
5 *607:9 0.00608288
6 *607:7 0.00698118
7 *607:9 *615:8 0.000416355
8 *607:9 *617:8 0.00457977
9 *607:9 *622:8 0.0170112
10 *607:9 *633:8 0.0206302
11 *607:9 *635:8 0.0280786
12 *607:9 *640:9 0.000191477
13 *607:9 *645:9 0.000841221
14 *649:wb_rst_i *607:7 0
15 *569:9 *607:9 0.00117949
16 *570:9 *607:9 9.77922e-06
17 *594:9 *607:9 0.0105746
18 *594:15 *649:wbs_dat_i[9] 0
*RES
1 wbs_dat_i[9] *607:7 32.8557 
2 *607:7 *607:9 427.501 
3 *607:9 *607:11 15 
4 *607:11 *649:wbs_dat_i[9] 1016.83 
5 *649:wbs_dat_i[9] *607:16 0.196786 
*END

*D_NET *608 0.146465
*CONN
*P wbs_dat_o[0] O
*I *649:wbs_dat_o[0] O *D vco_adc_wrapper
*CAP
1 wbs_dat_o[0] 0.0443119
2 *649:wbs_dat_o[0] 0.000386565
3 *608:19 8.61998e-06
4 *608:10 0.0443119
5 *608:8 0.00648185
6 *608:6 0.00685979
7 *608:8 *619:8 0.0230278
8 *608:8 *644:9 0.0210762
*RES
1 *649:wbs_dat_o[0] *608:6 16.4721 
2 *608:6 *608:8 48.3989 
3 *608:8 *608:10 8 
4 *608:10 wbs_dat_o[0] 1026.22 
5 *649:wbs_dat_o[0] *608:19 0.196786 
*END

*D_NET *609 0.172821
*CONN
*P wbs_dat_o[10] O
*I *649:wbs_dat_o[10] O *D vco_adc_wrapper
*CAP
1 wbs_dat_o[10] 0.0445701
2 *649:wbs_dat_o[10] 0.000487929
3 *609:19 8.61998e-06
4 *609:10 0.0445701
5 *609:8 0.00849435
6 *609:6 0.00897366
7 *609:8 *618:8 0.000555183
8 *609:8 *621:8 0.00497577
9 *609:8 *626:8 0
10 *609:8 *630:8 0.00296454
11 *609:8 *634:8 0.000176157
12 *609:8 *639:8 0.0387075
13 *649:wbs_cyc_i wbs_dat_o[10] 0
14 *597:9 *609:8 0.00227173
15 *599:17 *609:8 0.00579761
16 *604:17 *609:8 0.001438
17 *605:17 *609:8 0.00520039
18 *606:9 *609:8 0.00362954
*RES
1 *649:wbs_dat_o[10] *609:6 24.7046 
2 *609:6 *609:8 448.941 
3 *609:8 *609:10 15 
4 *609:10 wbs_dat_o[10] 1024.98 
5 *649:wbs_dat_o[10] *609:19 0.196786 
*END

*D_NET *610 0.188753
*CONN
*P wbs_dat_o[11] O
*I *649:wbs_dat_o[11] O *D vco_adc_wrapper
*CAP
1 wbs_dat_o[11] 0.00069494
2 *649:wbs_dat_o[11] 0.000656557
3 *610:27 8.61998e-06
4 *610:16 0.00942832
5 *610:14 0.00873338
6 *610:12 0.0438563
7 *610:10 0.0507899
8 *610:6 0.00758155
9 *610:10 *624:8 0.000866344
10 *610:10 *628:8 0.0144188
11 *610:10 *636:8 0.00100807
12 *610:16 *611:8 0.0249193
13 *610:16 *615:8 0.000598412
14 *610:16 *617:8 0.000986122
15 *610:16 *620:8 0.00543011
16 *610:16 *637:8 0.00794246
17 *610:16 *638:8 0.000831558
18 *610:16 *641:9 0.00932794
19 *562:7 *610:12 0.000262
20 *597:9 *610:10 0.00041276
*RES
1 *649:wbs_dat_o[11] *610:6 19.9936 
2 *610:6 *610:10 40.8571 
3 *610:10 *610:12 1007.27 
4 *610:12 *610:14 8 
5 *610:14 *610:16 50.9749 
6 *610:16 wbs_dat_o[11] 23.5668 
7 *649:wbs_dat_o[11] *610:27 0.196786 
*END

*D_NET *611 0.19182
*CONN
*P wbs_dat_o[12] O
*I *649:wbs_dat_o[12] O *D vco_adc_wrapper
*CAP
1 wbs_dat_o[12] 0.000665818
2 *649:wbs_dat_o[12] 0.0457371
3 *611:19 8.61998e-06
4 *611:8 0.0134744
5 *611:6 0.0128086
6 *611:4 0.0457285
7 *611:8 *620:8 0.00029619
8 *611:8 *627:8 0.00337535
9 *611:8 *632:8 0.0124714
10 *611:8 *638:8 0.0323349
11 *610:16 *611:8 0.0249193
*RES
1 *649:wbs_dat_o[12] *611:4 1019.83 
2 *611:4 *611:6 8 
3 *611:6 *611:8 86.6955 
4 *611:8 wbs_dat_o[12] 22.8625 
5 *649:wbs_dat_o[12] *611:19 0.196786 
*END

*D_NET *612 0.198031
*CONN
*P wbs_dat_o[13] O
*I *649:wbs_dat_o[13] O *D vco_adc_wrapper
*CAP
1 wbs_dat_o[13] 0.00210405
2 *649:wbs_dat_o[13] 0.0430315
3 *612:19 8.61998e-06
4 *612:8 0.012026
5 *612:6 0.00992191
6 *612:4 0.0430229
7 *528:15 wbs_dat_o[13] 0
8 *545:9 *612:8 0.00178619
9 *547:9 *612:8 0.0461588
10 *585:9 *612:8 0.039971
*RES
1 *649:wbs_dat_o[13] *612:4 995.176 
2 *612:4 *612:6 8 
3 *612:6 *612:8 89.5291 
4 *612:8 wbs_dat_o[13] 47.5125 
5 *649:wbs_dat_o[13] *612:19 0.196786 
*END

*D_NET *613 0.179626
*CONN
*P wbs_dat_o[14] O
*I *649:wbs_dat_o[14] O *D vco_adc_wrapper
*CAP
1 wbs_dat_o[14] 0.000976023
2 *649:wbs_dat_o[14] 0.0442279
3 *613:19 8.61998e-06
4 *613:8 0.0187685
5 *613:6 0.0177925
6 *613:4 0.0442193
7 wbs_dat_o[14] *649:wbs_sel_i[0] 0
8 *613:8 *615:8 0.0448419
9 *613:8 *641:9 0.000776861
10 *613:8 *642:9 0.000626059
11 *548:9 *613:8 0.00488137
12 *555:9 *613:8 0
13 *568:9 *613:8 0.00208236
14 *599:11 *613:8 0.00042503
*RES
1 *649:wbs_dat_o[14] *613:4 1015.6 
2 *613:4 *613:6 8 
3 *613:6 *613:8 92.4485 
4 *613:8 wbs_dat_o[14] 27.0882 
5 *649:wbs_dat_o[14] *613:19 0.196786 
*END

*D_NET *614 0.184814
*CONN
*P wbs_dat_o[15] O
*I *649:wbs_dat_o[15] O *D vco_adc_wrapper
*CAP
1 wbs_dat_o[15] 0.0447817
2 *649:wbs_dat_o[15] 0.000365189
3 *614:19 8.61998e-06
4 *614:10 0.0447817
5 *614:8 0.0201474
6 *614:6 0.020504
7 *614:8 *616:8 0.0463834
8 *614:8 *619:8 0.000660288
9 *614:8 *626:8 0.00656992
10 *614:8 *630:8 0.000612133
11 *649:wbs_dat_i[1] wbs_dat_o[15] 0
*RES
1 *649:wbs_dat_o[15] *614:6 15.7679 
2 *614:6 *614:8 95.2821 
3 *614:8 *614:10 8 
4 *614:10 wbs_dat_o[15] 1026.92 
5 *649:wbs_dat_o[15] *614:19 0.196786 
*END

*D_NET *615 0.21213
*CONN
*P wbs_dat_o[16] O
*I *649:wbs_dat_o[16] O *D vco_adc_wrapper
*CAP
1 wbs_dat_o[16] 0.000923143
2 *649:wbs_dat_o[16] 0.0442033
3 *615:19 8.61998e-06
4 *615:8 0.0140752
5 *615:6 0.0131521
6 *615:4 0.0441946
7 *615:8 *617:8 0.0478939
8 *615:8 *635:8 0.000692743
9 *615:8 *641:9 0.00018958
10 *615:8 *642:9 0.000939618
11 *555:9 *615:8 0
12 *607:9 *615:8 0.000416355
13 *610:16 *615:8 0.000598412
14 *613:8 *615:8 0.0448419
*RES
1 *649:wbs_dat_o[16] *615:4 1016.3 
2 *615:4 *615:6 8 
3 *615:6 *615:8 98.1157 
4 *615:8 wbs_dat_o[16] 26.3839 
5 *649:wbs_dat_o[16] *615:19 0.196786 
*END

*D_NET *616 0.260577
*CONN
*P wbs_dat_o[17] O
*I *649:wbs_dat_o[17] O *D vco_adc_wrapper
*CAP
1 wbs_dat_o[17] 0.0287373
2 *649:wbs_dat_o[17] 0.000396645
3 *616:19 8.61998e-06
4 *616:10 0.0287373
5 *616:8 0.0126559
6 *616:6 0.013044
7 *616:8 *618:8 0.0494241
8 *616:8 *626:8 0.000880786
9 *616:8 *630:8 0.00107383
10 *616:8 *634:8 0.000362284
11 *565:13 wbs_dat_o[17] 0.0788733
12 *614:8 *616:8 0.0463834
*RES
1 *649:wbs_dat_o[17] *616:6 16.4721 
2 *616:6 *616:8 101.035 
3 *616:8 *616:10 8 
4 *616:10 wbs_dat_o[17] 1026.22 
5 *649:wbs_dat_o[17] *616:19 0.196786 
*END

*D_NET *617 0.228634
*CONN
*P wbs_dat_o[18] O
*I *649:wbs_dat_o[18] O *D vco_adc_wrapper
*CAP
1 wbs_dat_o[18] 0.000861894
2 *649:wbs_dat_o[18] 0.0453452
3 *617:19 8.61998e-06
4 *617:8 0.0145035
5 *617:6 0.0136416
6 *617:4 0.0453366
7 *617:8 *620:8 0.0509489
8 *617:8 *633:8 0.000712775
9 *617:8 *635:8 0.00170733
10 *555:9 *617:8 0
11 *569:9 *617:8 0.000520443
12 *594:9 *617:8 0.00158745
13 *607:9 *617:8 0.00457977
14 *610:16 *617:8 0.000986122
15 *615:8 *617:8 0.0478939
*RES
1 *649:wbs_dat_o[18] *617:4 1017.01 
2 *617:4 *617:6 8 
3 *617:6 *617:8 103.869 
4 *617:8 wbs_dat_o[18] 25.6796 
5 *649:wbs_dat_o[18] *617:19 0.196786 
*END

*D_NET *618 0.223621
*CONN
*P wbs_dat_o[19] O
*I *649:wbs_dat_o[19] O *D vco_adc_wrapper
*CAP
1 wbs_dat_o[19] 0.0453269
2 *649:wbs_dat_o[19] 0.000425784
3 *618:19 8.61998e-06
4 *618:10 0.0453269
5 *618:8 0.0133331
6 *618:6 0.0137502
7 wbs_dat_o[19] *649:wbs_sel_i[2] 0
8 *618:8 *621:8 0.0524505
9 *618:8 *626:8 0.000687933
10 *618:8 *634:8 0.00169108
11 *618:8 *639:8 0.000640964
12 *609:8 *618:8 0.000555183
13 *616:8 *618:8 0.0494241
*RES
1 *649:wbs_dat_o[19] *618:6 17.1764 
2 *618:6 *618:8 106.788 
3 *618:8 *618:10 8 
4 *618:10 wbs_dat_o[19] 1025.51 
5 *649:wbs_dat_o[19] *618:19 0.196786 
*END

*D_NET *619 0.154075
*CONN
*P wbs_dat_o[1] O
*I *649:wbs_dat_o[1] O *D vco_adc_wrapper
*CAP
1 wbs_dat_o[1] 0.0443185
2 *649:wbs_dat_o[1] 0.000428926
3 *619:19 8.61998e-06
4 *619:10 0.0443185
5 *619:8 0.0066829
6 *619:6 0.0071032
7 *619:8 *630:8 0.0250542
8 *619:8 *639:8 0.00247206
9 *608:8 *619:8 0.0230278
10 *614:8 *619:8 0.000660288
*RES
1 *649:wbs_dat_o[1] *619:6 17.1764 
2 *619:6 *619:8 52.1771 
3 *619:8 *619:10 8 
4 *619:10 wbs_dat_o[1] 1025.51 
5 *649:wbs_dat_o[1] *619:19 0.196786 
*END

*D_NET *620 0.246037
*CONN
*P wbs_dat_o[20] O
*I *649:wbs_dat_o[20] O *D vco_adc_wrapper
*CAP
1 wbs_dat_o[20] 0.000823137
2 *649:wbs_dat_o[20] 0.044174
3 *620:19 8.61998e-06
4 *620:8 0.0153683
5 *620:6 0.0145452
6 *620:4 0.0441654
7 *620:8 *622:8 0.00973369
8 *620:8 *623:8 0.0111875
9 *620:8 *625:8 0.000682727
10 *620:8 *627:8 0.0453297
11 *620:8 *633:8 0.000111255
12 *555:9 *620:8 0
13 *569:9 *620:8 0.000580824
14 *570:9 *620:8 0.00129839
15 *571:9 *620:8 0.00135315
16 *610:16 *620:8 0.00543011
17 *611:8 *620:8 0.00029619
18 *617:8 *620:8 0.0509489
*RES
1 *649:wbs_dat_o[20] *620:4 1017.71 
2 *620:4 *620:6 8 
3 *620:6 *620:8 109.622 
4 *620:8 wbs_dat_o[20] 24.9754 
5 *649:wbs_dat_o[20] *620:19 0.196786 
*END

*D_NET *621 0.239133
*CONN
*P wbs_dat_o[21] O
*I *649:wbs_dat_o[21] O *D vco_adc_wrapper
*CAP
1 wbs_dat_o[21] 0.0453102
2 *649:wbs_dat_o[21] 0.000456799
3 *621:19 8.61998e-06
4 *621:10 0.0453102
5 *621:8 0.0138954
6 *621:6 0.0143436
7 wbs_dat_o[21] *633:4 0
8 *621:8 *624:8 0.0536809
9 *621:8 *626:8 0.000548072
10 *621:8 *634:8 0.00388068
11 *621:8 *636:8 0.000656667
12 *621:8 *639:8 0.00361587
13 *609:8 *621:8 0.00497577
14 *618:8 *621:8 0.0524505
*RES
1 *649:wbs_dat_o[21] *621:6 17.8807 
2 *621:6 *621:8 112.541 
3 *621:8 *621:10 8 
4 *621:10 wbs_dat_o[21] 1024.81 
5 *649:wbs_dat_o[21] *621:19 0.196786 
*END

*D_NET *622 0.206435
*CONN
*P wbs_dat_o[22] O
*I *649:wbs_dat_o[22] O *D vco_adc_wrapper
*CAP
1 wbs_dat_o[22] 0.00085103
2 *649:wbs_dat_o[22] 0.0440771
3 *622:19 8.61998e-06
4 *622:8 0.0161981
5 *622:6 0.0153471
6 *622:4 0.0440685
7 *622:8 *623:8 0.0581714
8 *649:wbs_adr_i[4] wbs_dat_o[22] 3.39192e-05
9 *570:9 *622:8 0.000934697
10 *607:9 *622:8 0.0170112
11 *620:8 *622:8 0.00973369
*RES
1 *649:wbs_dat_o[22] *622:4 1017.19 
2 *622:4 *622:6 15 
3 *622:6 *622:8 639.989 
4 *622:8 wbs_dat_o[22] 32.5036 
5 *649:wbs_dat_o[22] *622:19 0.196786 
*END

*D_NET *623 0.236837
*CONN
*P wbs_dat_o[23] O
*I *649:wbs_dat_o[23] O *D vco_adc_wrapper
*CAP
1 wbs_dat_o[23] 0.000838472
2 *649:wbs_dat_o[23] 0.0440715
3 *623:19 8.61998e-06
4 *623:8 0.00940645
5 *623:6 0.00856798
6 *623:4 0.0440628
7 *623:8 *625:8 0.0579727
8 *570:9 *623:8 0.00147434
9 *571:9 *623:8 0.00107487
10 *620:8 *623:8 0.0111875
11 *622:8 *623:8 0.0581714
*RES
1 *649:wbs_dat_o[23] *623:4 1017.54 
2 *623:4 *623:6 15 
3 *623:6 *623:8 656.187 
4 *623:8 wbs_dat_o[23] 32.1514 
5 *649:wbs_dat_o[23] *623:19 0.196786 
*END

*D_NET *624 0.260596
*CONN
*P wbs_dat_o[24] O
*I *649:wbs_dat_o[24] O *D vco_adc_wrapper
*CAP
1 wbs_dat_o[24] 0.0453022
2 *649:wbs_dat_o[24] 0.000513388
3 *624:19 8.61998e-06
4 *624:10 0.0453022
5 *624:8 0.0154853
6 *624:6 0.01599
7 *624:8 *628:8 0.0564751
8 *624:8 *636:8 0.00516366
9 *649:wbs_adr_i[5] wbs_dat_o[24] 0
10 *597:9 *624:8 0.0108866
11 *599:17 *624:8 0.00942963
12 *604:17 *624:8 0.000450659
13 *605:17 *624:8 0.000382331
14 *606:9 *624:8 0.000659272
15 *610:10 *624:8 0.000866344
16 *621:8 *624:8 0.0536809
*RES
1 *649:wbs_dat_o[24] *624:6 18.585 
2 *624:6 *624:8 121.128 
3 *624:8 *624:10 8 
4 *624:10 wbs_dat_o[24] 1024.1 
5 *649:wbs_dat_o[24] *624:19 0.196786 
*END

*D_NET *625 0.241789
*CONN
*P wbs_dat_o[25] O
*I *649:wbs_dat_o[25] O *D vco_adc_wrapper
*CAP
1 wbs_dat_o[25] 0.000796476
2 *649:wbs_dat_o[25] 0.0440343
3 *625:19 8.61998e-06
4 *625:8 0.0102697
5 *625:6 0.00947325
6 *625:4 0.0440257
7 *625:8 *627:8 0.0116063
8 *625:8 *637:8 0.00183545
9 *571:9 *625:8 0.00125218
10 *596:9 *625:8 0.0598318
11 *620:8 *625:8 0.000682727
12 *623:8 *625:8 0.0579727
*RES
1 *649:wbs_dat_o[25] *625:4 1017.89 
2 *625:4 *625:6 15 
3 *625:6 *625:8 688.108 
4 *625:8 wbs_dat_o[25] 31.7993 
5 *649:wbs_dat_o[25] *625:19 0.196786 
*END

*D_NET *626 0.165648
*CONN
*P wbs_dat_o[26] O
*I *649:wbs_dat_o[26] O *D vco_adc_wrapper
*CAP
1 wbs_dat_o[26] 0.0449418
2 *649:wbs_dat_o[26] 0.000348276
3 *626:19 8.61998e-06
4 *626:10 0.0449418
5 *626:8 0.0326961
6 *626:6 0.0330358
7 *626:8 *639:8 0.000988744
8 *599:17 *626:8 0
9 *609:8 *626:8 0
10 *614:8 *626:8 0.00656992
11 *616:8 *626:8 0.000880786
12 *618:8 *626:8 0.000687933
13 *621:8 *626:8 0.000548072
*RES
1 *649:wbs_dat_o[26] *626:6 22.5918 
2 *626:6 *626:8 703.83 
3 *626:8 *626:10 15 
4 *626:10 wbs_dat_o[26] 1027.1 
5 *649:wbs_dat_o[26] *626:19 0.196786 
*END

*D_NET *627 0.265402
*CONN
*P wbs_dat_o[27] O
*I *649:wbs_dat_o[27] O *D vco_adc_wrapper
*CAP
1 wbs_dat_o[27] 0.000758223
2 *649:wbs_dat_o[27] 0.0440174
3 *627:19 8.61998e-06
4 *627:8 0.0192979
5 *627:6 0.0185396
6 *627:4 0.0440088
7 *627:8 *629:8 0.00140552
8 *627:8 *632:8 0.0611693
9 *627:8 *637:8 0.00118168
10 *596:9 *627:8 0.0147034
11 *611:8 *627:8 0.00337535
12 *620:8 *627:8 0.0453297
13 *625:8 *627:8 0.0116063
*RES
1 *649:wbs_dat_o[27] *627:4 1018.42 
2 *627:4 *627:6 8 
3 *627:6 *627:8 129.715 
4 *627:8 wbs_dat_o[27] 24.2711 
5 *649:wbs_dat_o[27] *627:19 0.196786 
*END

*D_NET *628 0.262565
*CONN
*P wbs_dat_o[28] O
*I *649:wbs_dat_o[28] O *D vco_adc_wrapper
*CAP
1 wbs_dat_o[28] 0.0458636
2 *649:wbs_dat_o[28] 0.000543934
3 *628:19 8.61998e-06
4 *628:10 0.0458636
5 *628:8 0.0271434
6 *628:6 0.0276787
7 *628:8 *631:8 0.0123474
8 *597:9 *628:8 0.00176925
9 *599:17 *628:8 0.00156511
10 *600:9 *628:8 0.0276021
11 *606:9 *628:8 0.00128541
12 *610:10 *628:8 0.0144188
13 *624:8 *628:8 0.0564751
*RES
1 *649:wbs_dat_o[28] *628:6 19.2893 
2 *628:6 *628:8 132.634 
3 *628:8 *628:10 8 
4 *628:10 wbs_dat_o[28] 1023.4 
5 *649:wbs_dat_o[28] *628:19 0.196786 
*END

*D_NET *629 0.226791
*CONN
*P wbs_dat_o[29] O
*I *649:wbs_dat_o[29] O *D vco_adc_wrapper
*CAP
1 wbs_dat_o[29] 0.000744947
2 *649:wbs_dat_o[29] 0.0439699
3 *629:19 8.61998e-06
4 *629:8 0.0226699
5 *629:6 0.021925
6 *629:4 0.0439613
7 *629:8 *632:8 0.0260064
8 *596:9 *629:8 0.066099
9 *627:8 *629:8 0.00140552
*RES
1 *649:wbs_dat_o[29] *629:4 1018.59 
2 *629:4 *629:6 15 
3 *629:6 *629:8 751.473 
4 *629:8 wbs_dat_o[29] 31.095 
5 *649:wbs_dat_o[29] *629:19 0.196786 
*END

*D_NET *630 0.158907
*CONN
*P wbs_dat_o[2] O
*I *649:wbs_dat_o[2] O *D vco_adc_wrapper
*CAP
1 wbs_dat_o[2] 0.0443252
2 *649:wbs_dat_o[2] 0.000489132
3 *630:19 8.61998e-06
4 *630:10 0.0443252
5 *630:8 0.007163
6 *630:6 0.00764351
7 *630:8 *634:8 0.0247433
8 *630:8 *643:9 0.000504369
9 *609:8 *630:8 0.00296454
10 *614:8 *630:8 0.000612133
11 *616:8 *630:8 0.00107383
12 *619:8 *630:8 0.0250542
*RES
1 *649:wbs_dat_o[2] *630:6 17.8807 
2 *630:6 *630:8 56.0411 
3 *630:8 *630:10 8 
4 *630:10 wbs_dat_o[2] 1024.81 
5 *649:wbs_dat_o[2] *630:19 0.196786 
*END

*D_NET *631 0.265302
*CONN
*P wbs_dat_o[30] O
*I *649:wbs_dat_o[30] O *D vco_adc_wrapper
*CAP
1 wbs_dat_o[30] 0.0459266
2 *649:wbs_dat_o[30] 0.000489776
3 *631:19 8.61998e-06
4 *631:10 0.0459266
5 *631:8 0.0101034
6 *631:6 0.0105846
7 *649:wbs_dat_i[8] wbs_dat_o[30] 5.99567e-06
8 *597:9 *631:8 0.0674315
9 *599:17 *631:8 0.00178532
10 *600:9 *631:8 0.07055
11 *606:9 *631:8 0.000142173
12 *628:8 *631:8 0.0123474
*RES
1 *649:wbs_dat_o[30] *631:6 25.7611 
2 *631:6 *631:8 767.671 
3 *631:8 *631:10 15 
4 *631:10 wbs_dat_o[30] 1023.93 
5 *649:wbs_dat_o[30] *631:19 0.196786 
*END

*D_NET *632 0.245442
*CONN
*P wbs_dat_o[31] O
*I *649:wbs_dat_o[31] O *D vco_adc_wrapper
*CAP
1 wbs_dat_o[31] 0.000706555
2 *649:wbs_dat_o[31] 0.0439386
3 *632:19 8.61998e-06
4 *632:8 0.0289591
5 *632:6 0.0282525
6 *632:4 0.04393
7 *611:8 *632:8 0.0124714
8 *627:8 *632:8 0.0611693
9 *629:8 *632:8 0.0260064
*RES
1 *649:wbs_dat_o[31] *632:4 1019.12 
2 *632:4 *632:6 8 
3 *632:6 *632:8 141.221 
4 *632:8 wbs_dat_o[31] 23.5668 
5 *649:wbs_dat_o[31] *632:19 0.196786 
*END

*D_NET *633 0.158875
*CONN
*P wbs_dat_o[3] O
*I *649:wbs_dat_o[3] O *D vco_adc_wrapper
*CAP
1 wbs_dat_o[3] 0.000829323
2 *649:wbs_dat_o[3] 0.0441799
3 *633:19 8.61998e-06
4 *633:8 0.00595139
5 *633:6 0.00512207
6 *633:4 0.0441713
7 *633:8 *635:8 0.00350346
8 *633:8 *640:9 0.00137358
9 *633:8 *642:9 0.00141346
10 wbs_dat_o[21] *633:4 0
11 *540:11 *633:8 0.000351468
12 *542:8 *633:8 0.000299103
13 *569:9 *633:8 0.0297782
14 *589:5 *633:4 0.000438661
15 *607:9 *633:8 0.0206302
16 *617:8 *633:8 0.000712775
17 *620:8 *633:8 0.000111255
*RES
1 *649:wbs_dat_o[3] *633:4 1017.19 
2 *633:4 *633:6 15 
3 *633:6 *633:8 331.739 
4 *633:8 wbs_dat_o[3] 32.5036 
5 *649:wbs_dat_o[3] *633:19 0.196786 
*END

*D_NET *634 0.16816
*CONN
*P wbs_dat_o[4] O
*I *649:wbs_dat_o[4] O *D vco_adc_wrapper
*CAP
1 wbs_dat_o[4] 0.0443678
2 *649:wbs_dat_o[4] 0.000545412
3 *634:19 8.61998e-06
4 *634:10 0.0443678
5 *634:8 0.00757102
6 *634:6 0.00810782
7 *634:8 *636:8 0.0298269
8 *634:8 *639:8 0.000773561
9 *634:8 *643:9 0.00173726
10 *609:8 *634:8 0.000176157
11 *616:8 *634:8 0.000362284
12 *618:8 *634:8 0.00169108
13 *621:8 *634:8 0.00388068
14 *630:8 *634:8 0.0247433
*RES
1 *649:wbs_dat_o[4] *634:6 18.585 
2 *634:6 *634:8 63.6832 
3 *634:8 *634:10 8 
4 *634:10 wbs_dat_o[4] 1024.1 
5 *649:wbs_dat_o[4] *634:19 0.196786 
*END

*D_NET *635 0.164545
*CONN
*P wbs_dat_o[5] O
*I *649:wbs_dat_o[5] O *D vco_adc_wrapper
*CAP
1 wbs_dat_o[5] 0.000888474
2 *649:wbs_dat_o[5] 0.0443695
3 *635:19 8.61998e-06
4 *635:8 0.00802534
5 *635:6 0.00713687
6 *635:4 0.0443608
7 *635:8 *640:9 0.000169384
8 *635:8 *642:9 0.0237476
9 *635:8 *645:9 0.00185634
10 *561:7 *635:4 0
11 *604:13 *635:4 0
12 *607:9 *635:8 0.0280786
13 *615:8 *635:8 0.000692743
14 *617:8 *635:8 0.00170733
15 *633:8 *635:8 0.00350346
*RES
1 *649:wbs_dat_o[5] *635:4 1016.48 
2 *635:4 *635:6 15 
3 *635:6 *635:8 369.377 
4 *635:8 wbs_dat_o[5] 33.2079 
5 *649:wbs_dat_o[5] *635:19 0.196786 
*END

*D_NET *636 0.18519
*CONN
*P wbs_dat_o[6] O
*I *649:wbs_dat_o[6] O *D vco_adc_wrapper
*CAP
1 wbs_dat_o[6] 0.0443866
2 *649:wbs_dat_o[6] 0.000615223
3 *636:19 8.61998e-06
4 *636:10 0.0443866
5 *636:8 0.0099155
6 *636:6 0.0105221
7 *636:8 *643:9 0.0266002
8 *605:17 *636:8 0.00245498
9 *606:9 *636:8 0.00964462
10 *610:10 *636:8 0.00100807
11 *621:8 *636:8 0.000656667
12 *624:8 *636:8 0.00516366
13 *634:8 *636:8 0.0298269
*RES
1 *649:wbs_dat_o[6] *636:6 19.2893 
2 *636:6 *636:8 69.4363 
3 *636:8 *636:10 8 
4 *636:10 wbs_dat_o[6] 1023.4 
5 *649:wbs_dat_o[6] *636:19 0.196786 
*END

*D_NET *637 0.162481
*CONN
*P wbs_dat_o[7] O
*I *649:wbs_dat_o[7] O *D vco_adc_wrapper
*CAP
1 wbs_dat_o[7] 0.000733302
2 *649:wbs_dat_o[7] 0.0446019
3 *637:19 8.61998e-06
4 *637:8 0.0130247
5 *637:6 0.0122914
6 *637:4 0.0445933
7 *637:8 *641:9 0.00166589
8 *540:11 *637:8 0.000607218
9 *571:9 *637:8 0.0319893
10 *596:9 *637:8 0.00200574
11 *597:5 *637:4 0
12 *610:16 *637:8 0.00794246
13 *625:8 *637:8 0.00183545
14 *627:8 *637:8 0.00118168
*RES
1 *649:wbs_dat_o[7] *637:4 1018.59 
2 *637:4 *637:6 15 
3 *637:6 *637:8 400.821 
4 *637:8 wbs_dat_o[7] 31.095 
5 *649:wbs_dat_o[7] *637:19 0.196786 
*END

*D_NET *638 0.206302
*CONN
*P wbs_dat_o[8] O
*I *649:wbs_dat_o[8] O *D vco_adc_wrapper
*CAP
1 wbs_dat_o[8] 0.000623608
2 *649:wbs_dat_o[8] 0.0285911
3 *638:19 8.61998e-06
4 *638:8 0.0169983
5 *638:6 0.0163747
6 *638:4 0.0285825
7 *638:8 *641:9 0.00103012
8 *541:11 *638:8 0.00158704
9 *600:5 *638:4 0.0793393
10 *610:16 *638:8 0.000831558
11 *611:8 *638:8 0.0323349
*RES
1 *649:wbs_dat_o[8] *638:4 1020.53 
2 *638:4 *638:6 8 
3 *638:6 *638:8 75.1893 
4 *638:8 wbs_dat_o[8] 22.1582 
5 *649:wbs_dat_o[8] *638:19 0.196786 
*END

*D_NET *639 0.162406
*CONN
*P wbs_dat_o[9] O
*I *649:wbs_dat_o[9] O *D vco_adc_wrapper
*CAP
1 wbs_dat_o[9] 0.0445804
2 *649:wbs_dat_o[9] 0.000466824
3 *639:19 8.61998e-06
4 *639:10 0.0445804
5 *639:8 0.0124825
6 *639:6 0.0129407
7 *649:wb_rst_i wbs_dat_o[9] 0
8 *606:9 *639:8 0.000148011
9 *609:8 *639:8 0.0387075
10 *618:8 *639:8 0.000640964
11 *619:8 *639:8 0.00247206
12 *621:8 *639:8 0.00361587
13 *626:8 *639:8 0.000988744
14 *634:8 *639:8 0.000773561
*RES
1 *649:wbs_dat_o[9] *639:6 24.3525 
2 *639:6 *639:8 432.742 
3 *639:8 *639:10 15 
4 *639:10 wbs_dat_o[9] 1025.34 
5 *649:wbs_dat_o[9] *639:19 0.196786 
*END

*D_NET *640 0.159601
*CONN
*P wbs_sel_i[0] I
*I *649:wbs_sel_i[0] I *D vco_adc_wrapper
*CAP
1 wbs_sel_i[0] 0.000766287
2 *649:wbs_sel_i[0] 0.0454443
3 *640:16 8.61998e-06
4 *640:11 0.0454357
5 *640:9 0.00766189
6 *640:7 0.00842818
7 *640:9 *641:9 0.0234039
8 *640:9 *642:9 0.000149552
9 *640:9 *645:9 0.0214552
10 wbs_dat_o[14] *649:wbs_sel_i[0] 0
11 *540:11 *640:9 0.0011442
12 *568:9 *640:9 0
13 *569:9 *640:9 0.00396929
14 *581:7 *649:wbs_sel_i[0] 0
15 *607:9 *640:9 0.000191477
16 *633:8 *640:9 0.00137358
17 *635:8 *640:9 0.000169384
*RES
1 wbs_sel_i[0] *640:7 24.9754 
2 *640:7 *640:9 49.3435 
3 *640:9 *640:11 8 
4 *640:11 *649:wbs_sel_i[0] 1017.71 
5 *649:wbs_sel_i[0] *640:16 0.196786 
*END

*D_NET *641 0.165109
*CONN
*P wbs_sel_i[1] I
*I *649:wbs_sel_i[1] I *D vco_adc_wrapper
*CAP
1 wbs_sel_i[1] 0.000737165
2 *649:wbs_sel_i[1] 0.0442946
3 *641:16 8.61998e-06
4 *641:11 0.044286
5 *641:9 0.00815713
6 *641:7 0.0088943
7 *540:11 *641:9 0.0137538
8 *541:11 *641:9 0.000511555
9 *551:7 *649:wbs_sel_i[1] 0.000300117
10 *570:9 *641:9 0.00335132
11 *571:9 *641:9 0.00441988
12 *610:16 *641:9 0.00932794
13 *613:8 *641:9 0.000776861
14 *615:8 *641:9 0.00018958
15 *637:8 *641:9 0.00166589
16 *638:8 *641:9 0.00103012
17 *640:9 *641:9 0.0234039
*RES
1 wbs_sel_i[1] *641:7 24.2711 
2 *641:7 *641:9 53.1216 
3 *641:9 *641:11 8 
4 *641:11 *649:wbs_sel_i[1] 1018.42 
5 *649:wbs_sel_i[1] *641:16 0.196786 
*END

*D_NET *642 0.143113
*CONN
*P wbs_sel_i[2] I
*I *649:wbs_sel_i[2] I *D vco_adc_wrapper
*CAP
1 wbs_sel_i[2] 0.000892638
2 *649:wbs_sel_i[2] 0.045399
3 *642:16 8.61998e-06
4 *642:11 0.0453904
5 *642:9 0.010057
6 *642:7 0.0109496
7 *642:9 *645:9 0.000191477
8 wbs_dat_o[19] *649:wbs_sel_i[2] 0
9 *575:9 *642:9 0.00334844
10 *586:7 *649:wbs_sel_i[2] 0
11 *613:8 *642:9 0.000626059
12 *615:8 *642:9 0.000939618
13 *633:8 *642:9 0.00141346
14 *635:8 *642:9 0.0237476
15 *640:9 *642:9 0.000149552
*RES
1 wbs_sel_i[2] *642:7 33.56 
2 *642:7 *642:9 316.017 
3 *642:9 *642:11 15 
4 *642:11 *649:wbs_sel_i[2] 1016.13 
5 *649:wbs_sel_i[2] *642:16 0.196786 
*END

*D_NET *643 0.147164
*CONN
*P wbs_sel_i[3] I
*I *649:wbs_sel_i[3] I *D vco_adc_wrapper
*CAP
1 wbs_sel_i[3] 0.0442774
2 *649:wbs_sel_i[3] 0.00064693
3 *643:16 8.61998e-06
4 *643:9 0.0134313
5 *643:7 0.012793
6 *643:5 0.0442774
7 *606:9 *643:9 0.00288749
8 *630:8 *643:9 0.000504369
9 *634:8 *643:9 0.00173726
10 *636:8 *643:9 0.0266002
*RES
1 wbs_sel_i[3] *643:5 1022.7 
2 *643:5 *643:7 8 
3 *643:7 *643:9 60.8496 
4 *643:9 *649:wbs_sel_i[3] 19.9936 
5 *649:wbs_sel_i[3] *643:16 0.196786 
*END

*D_NET *644 0.12964
*CONN
*P wbs_stb_i I
*I *649:wbs_stb_i I *D vco_adc_wrapper
*CAP
1 wbs_stb_i 0.0443052
2 *649:wbs_stb_i 0.000356743
3 *644:16 8.61998e-06
4 *644:9 0.00996825
5 *644:7 0.00962012
6 *644:5 0.0443052
7 *608:8 *644:9 0.0210762
*RES
1 wbs_stb_i *644:5 1026.92 
2 *644:5 *644:7 8 
3 *644:7 *644:9 44.5349 
4 *644:9 *649:wbs_stb_i 15.7679 
5 *649:wbs_stb_i *644:16 0.196786 
*END

*D_NET *645 0.148948
*CONN
*P wbs_we_i I
*I *649:wbs_we_i I *D vco_adc_wrapper
*CAP
1 wbs_we_i 0.000795423
2 *649:wbs_we_i 0.043932
3 *645:16 8.61998e-06
4 *645:11 0.0439234
5 *645:9 0.00602585
6 *645:7 0.00682127
7 *540:11 *645:9 0.000656625
8 *546:7 *649:wbs_we_i 0.000841066
9 *568:9 *645:9 0
10 *575:9 *645:9 0.0215997
11 *579:7 *649:wbs_we_i 0
12 *607:9 *645:9 0.000841221
13 *635:8 *645:9 0.00185634
14 *640:9 *645:9 0.0214552
15 *642:9 *645:9 0.000191477
*RES
1 wbs_we_i *645:7 25.6796 
2 *645:7 *645:9 45.4795 
3 *645:9 *645:11 8 
4 *645:11 *649:wbs_we_i 1017.01 
5 *649:wbs_we_i *645:16 0.196786 
*END

*D_NET *646 0.162093
*CONN
*I *649:phase_in I *D vco_adc_wrapper
*I *648:quantizer_out O *D vco_adc2
*CAP
1 *649:phase_in 0.000581893
2 *648:quantizer_out 8.30206e-05
3 *646:21 0.015802
4 *646:19 0.0152201
5 *646:17 0.0407798
6 *646:15 0.0408071
7 *646:13 0.0043726
8 *646:11 0.00442839
9 *646:21 *647:9 0.0400178
*RES
1 *648:quantizer_out *646:11 31.45 
2 *646:11 *646:13 100.599 
3 *646:13 *646:15 0.621429 
4 *646:15 *646:17 946.788 
5 *646:17 *646:19 8 
6 *646:19 *646:21 76.2197 
7 *646:21 *649:phase_in 20.7496 
*END

*D_NET *647 0.22917
*CONN
*I *648:enable_in I *D vco_adc2
*I *649:vco_enb_o O *D vco_adc_wrapper
*CAP
1 *648:enable_in 5.67488e-05
2 *649:vco_enb_o 0.000532771
3 *647:17 0.00440212
4 *647:15 0.0043726
5 *647:13 0.0408362
6 *647:11 0.040809
7 *647:9 0.048805
8 *647:7 0.0493378
9 *646:21 *647:9 0.0400178
*RES
1 *649:vco_enb_o *647:7 20.0454 
2 *647:7 *647:9 191.968 
3 *647:9 *647:11 8 
4 *647:11 *647:13 947.492 
5 *647:13 *647:15 0.621429 
6 *647:15 *647:17 100.599 
7 *647:17 *648:enable_in 31.2014 
*END
