*SPEF "ieee 1481-1999"
*DESIGN "user_project_wrapper"
*DATE "11:11:11 Fri 11 11, 1111"
*VENDOR "OpenRCX"
*PROGRAM "Parallel Extraction"
*VERSION "1.0"
*DESIGN_FLOW "NAME_SCOPE LOCAL" "PIN_CAP NONE"
*DIVIDER /
*DELIMITER :
*BUS_DELIMITER []
*T_UNIT 1 NS
*C_UNIT 1 PF
*R_UNIT 1 OHM
*L_UNIT 1 HENRY

*NAME_MAP
*1 analog_io[0]
*2 analog_io[10]
*3 analog_io[11]
*4 analog_io[12]
*5 analog_io[13]
*6 analog_io[14]
*7 analog_io[15]
*8 analog_io[16]
*9 analog_io[17]
*10 analog_io[18]
*11 analog_io[19]
*12 analog_io[1]
*13 analog_io[20]
*14 analog_io[21]
*15 analog_io[22]
*16 analog_io[23]
*17 analog_io[24]
*18 analog_io[25]
*19 analog_io[26]
*20 analog_io[27]
*21 analog_io[28]
*22 analog_io[2]
*23 analog_io[3]
*24 analog_io[4]
*25 analog_io[5]
*26 analog_io[6]
*27 analog_io[7]
*28 analog_io[8]
*29 analog_io[9]
*30 io_in[0]
*31 io_in[10]
*32 io_in[11]
*33 io_in[12]
*34 io_in[13]
*35 io_in[14]
*36 io_in[15]
*37 io_in[16]
*38 io_in[17]
*39 io_in[18]
*40 io_in[19]
*41 io_in[1]
*42 io_in[20]
*43 io_in[21]
*44 io_in[22]
*45 io_in[23]
*46 io_in[24]
*47 io_in[25]
*48 io_in[26]
*49 io_in[27]
*50 io_in[28]
*51 io_in[29]
*52 io_in[2]
*53 io_in[30]
*54 io_in[31]
*55 io_in[32]
*56 io_in[33]
*57 io_in[34]
*58 io_in[35]
*59 io_in[36]
*60 io_in[37]
*61 io_in[3]
*62 io_in[4]
*63 io_in[5]
*64 io_in[6]
*65 io_in[7]
*66 io_in[8]
*67 io_in[9]
*68 io_oeb[0]
*69 io_oeb[10]
*70 io_oeb[11]
*71 io_oeb[12]
*72 io_oeb[13]
*73 io_oeb[14]
*74 io_oeb[15]
*75 io_oeb[16]
*76 io_oeb[17]
*77 io_oeb[18]
*78 io_oeb[19]
*79 io_oeb[1]
*80 io_oeb[20]
*81 io_oeb[21]
*82 io_oeb[22]
*83 io_oeb[23]
*84 io_oeb[24]
*85 io_oeb[25]
*86 io_oeb[26]
*87 io_oeb[27]
*88 io_oeb[28]
*89 io_oeb[29]
*90 io_oeb[2]
*91 io_oeb[30]
*92 io_oeb[31]
*93 io_oeb[32]
*94 io_oeb[33]
*95 io_oeb[34]
*96 io_oeb[35]
*97 io_oeb[36]
*98 io_oeb[37]
*99 io_oeb[3]
*100 io_oeb[4]
*101 io_oeb[5]
*102 io_oeb[6]
*103 io_oeb[7]
*104 io_oeb[8]
*105 io_oeb[9]
*106 io_out[0]
*107 io_out[10]
*108 io_out[11]
*109 io_out[12]
*110 io_out[13]
*111 io_out[14]
*112 io_out[15]
*113 io_out[16]
*114 io_out[17]
*115 io_out[18]
*116 io_out[19]
*117 io_out[1]
*118 io_out[20]
*119 io_out[21]
*120 io_out[22]
*121 io_out[23]
*122 io_out[24]
*123 io_out[25]
*124 io_out[26]
*125 io_out[27]
*126 io_out[28]
*127 io_out[29]
*128 io_out[2]
*129 io_out[30]
*130 io_out[31]
*131 io_out[32]
*132 io_out[33]
*133 io_out[34]
*134 io_out[35]
*135 io_out[36]
*136 io_out[37]
*137 io_out[3]
*138 io_out[4]
*139 io_out[5]
*140 io_out[6]
*141 io_out[7]
*142 io_out[8]
*143 io_out[9]
*144 la_data_in[0]
*145 la_data_in[100]
*146 la_data_in[101]
*147 la_data_in[102]
*148 la_data_in[103]
*149 la_data_in[104]
*150 la_data_in[105]
*151 la_data_in[106]
*152 la_data_in[107]
*153 la_data_in[108]
*154 la_data_in[109]
*155 la_data_in[10]
*156 la_data_in[110]
*157 la_data_in[111]
*158 la_data_in[112]
*159 la_data_in[113]
*160 la_data_in[114]
*161 la_data_in[115]
*162 la_data_in[116]
*163 la_data_in[117]
*164 la_data_in[118]
*165 la_data_in[119]
*166 la_data_in[11]
*167 la_data_in[120]
*168 la_data_in[121]
*169 la_data_in[122]
*170 la_data_in[123]
*171 la_data_in[124]
*172 la_data_in[125]
*173 la_data_in[126]
*174 la_data_in[127]
*175 la_data_in[12]
*176 la_data_in[13]
*177 la_data_in[14]
*178 la_data_in[15]
*179 la_data_in[16]
*180 la_data_in[17]
*181 la_data_in[18]
*182 la_data_in[19]
*183 la_data_in[1]
*184 la_data_in[20]
*185 la_data_in[21]
*186 la_data_in[22]
*187 la_data_in[23]
*188 la_data_in[24]
*189 la_data_in[25]
*190 la_data_in[26]
*191 la_data_in[27]
*192 la_data_in[28]
*193 la_data_in[29]
*194 la_data_in[2]
*195 la_data_in[30]
*196 la_data_in[31]
*197 la_data_in[32]
*198 la_data_in[33]
*199 la_data_in[34]
*200 la_data_in[35]
*201 la_data_in[36]
*202 la_data_in[37]
*203 la_data_in[38]
*204 la_data_in[39]
*205 la_data_in[3]
*206 la_data_in[40]
*207 la_data_in[41]
*208 la_data_in[42]
*209 la_data_in[43]
*210 la_data_in[44]
*211 la_data_in[45]
*212 la_data_in[46]
*213 la_data_in[47]
*214 la_data_in[48]
*215 la_data_in[49]
*216 la_data_in[4]
*217 la_data_in[50]
*218 la_data_in[51]
*219 la_data_in[52]
*220 la_data_in[53]
*221 la_data_in[54]
*222 la_data_in[55]
*223 la_data_in[56]
*224 la_data_in[57]
*225 la_data_in[58]
*226 la_data_in[59]
*227 la_data_in[5]
*228 la_data_in[60]
*229 la_data_in[61]
*230 la_data_in[62]
*231 la_data_in[63]
*232 la_data_in[64]
*233 la_data_in[65]
*234 la_data_in[66]
*235 la_data_in[67]
*236 la_data_in[68]
*237 la_data_in[69]
*238 la_data_in[6]
*239 la_data_in[70]
*240 la_data_in[71]
*241 la_data_in[72]
*242 la_data_in[73]
*243 la_data_in[74]
*244 la_data_in[75]
*245 la_data_in[76]
*246 la_data_in[77]
*247 la_data_in[78]
*248 la_data_in[79]
*249 la_data_in[7]
*250 la_data_in[80]
*251 la_data_in[81]
*252 la_data_in[82]
*253 la_data_in[83]
*254 la_data_in[84]
*255 la_data_in[85]
*256 la_data_in[86]
*257 la_data_in[87]
*258 la_data_in[88]
*259 la_data_in[89]
*260 la_data_in[8]
*261 la_data_in[90]
*262 la_data_in[91]
*263 la_data_in[92]
*264 la_data_in[93]
*265 la_data_in[94]
*266 la_data_in[95]
*267 la_data_in[96]
*268 la_data_in[97]
*269 la_data_in[98]
*270 la_data_in[99]
*271 la_data_in[9]
*272 la_data_out[0]
*273 la_data_out[100]
*274 la_data_out[101]
*275 la_data_out[102]
*276 la_data_out[103]
*277 la_data_out[104]
*278 la_data_out[105]
*279 la_data_out[106]
*280 la_data_out[107]
*281 la_data_out[108]
*282 la_data_out[109]
*283 la_data_out[10]
*284 la_data_out[110]
*285 la_data_out[111]
*286 la_data_out[112]
*287 la_data_out[113]
*288 la_data_out[114]
*289 la_data_out[115]
*290 la_data_out[116]
*291 la_data_out[117]
*292 la_data_out[118]
*293 la_data_out[119]
*294 la_data_out[11]
*295 la_data_out[120]
*296 la_data_out[121]
*297 la_data_out[122]
*298 la_data_out[123]
*299 la_data_out[124]
*300 la_data_out[125]
*301 la_data_out[126]
*302 la_data_out[127]
*303 la_data_out[12]
*304 la_data_out[13]
*305 la_data_out[14]
*306 la_data_out[15]
*307 la_data_out[16]
*308 la_data_out[17]
*309 la_data_out[18]
*310 la_data_out[19]
*311 la_data_out[1]
*312 la_data_out[20]
*313 la_data_out[21]
*314 la_data_out[22]
*315 la_data_out[23]
*316 la_data_out[24]
*317 la_data_out[25]
*318 la_data_out[26]
*319 la_data_out[27]
*320 la_data_out[28]
*321 la_data_out[29]
*322 la_data_out[2]
*323 la_data_out[30]
*324 la_data_out[31]
*325 la_data_out[32]
*326 la_data_out[33]
*327 la_data_out[34]
*328 la_data_out[35]
*329 la_data_out[36]
*330 la_data_out[37]
*331 la_data_out[38]
*332 la_data_out[39]
*333 la_data_out[3]
*334 la_data_out[40]
*335 la_data_out[41]
*336 la_data_out[42]
*337 la_data_out[43]
*338 la_data_out[44]
*339 la_data_out[45]
*340 la_data_out[46]
*341 la_data_out[47]
*342 la_data_out[48]
*343 la_data_out[49]
*344 la_data_out[4]
*345 la_data_out[50]
*346 la_data_out[51]
*347 la_data_out[52]
*348 la_data_out[53]
*349 la_data_out[54]
*350 la_data_out[55]
*351 la_data_out[56]
*352 la_data_out[57]
*353 la_data_out[58]
*354 la_data_out[59]
*355 la_data_out[5]
*356 la_data_out[60]
*357 la_data_out[61]
*358 la_data_out[62]
*359 la_data_out[63]
*360 la_data_out[64]
*361 la_data_out[65]
*362 la_data_out[66]
*363 la_data_out[67]
*364 la_data_out[68]
*365 la_data_out[69]
*366 la_data_out[6]
*367 la_data_out[70]
*368 la_data_out[71]
*369 la_data_out[72]
*370 la_data_out[73]
*371 la_data_out[74]
*372 la_data_out[75]
*373 la_data_out[76]
*374 la_data_out[77]
*375 la_data_out[78]
*376 la_data_out[79]
*377 la_data_out[7]
*378 la_data_out[80]
*379 la_data_out[81]
*380 la_data_out[82]
*381 la_data_out[83]
*382 la_data_out[84]
*383 la_data_out[85]
*384 la_data_out[86]
*385 la_data_out[87]
*386 la_data_out[88]
*387 la_data_out[89]
*388 la_data_out[8]
*389 la_data_out[90]
*390 la_data_out[91]
*391 la_data_out[92]
*392 la_data_out[93]
*393 la_data_out[94]
*394 la_data_out[95]
*395 la_data_out[96]
*396 la_data_out[97]
*397 la_data_out[98]
*398 la_data_out[99]
*399 la_data_out[9]
*400 la_oenb[0]
*401 la_oenb[100]
*402 la_oenb[101]
*403 la_oenb[102]
*404 la_oenb[103]
*405 la_oenb[104]
*406 la_oenb[105]
*407 la_oenb[106]
*408 la_oenb[107]
*409 la_oenb[108]
*410 la_oenb[109]
*411 la_oenb[10]
*412 la_oenb[110]
*413 la_oenb[111]
*414 la_oenb[112]
*415 la_oenb[113]
*416 la_oenb[114]
*417 la_oenb[115]
*418 la_oenb[116]
*419 la_oenb[117]
*420 la_oenb[118]
*421 la_oenb[119]
*422 la_oenb[11]
*423 la_oenb[120]
*424 la_oenb[121]
*425 la_oenb[122]
*426 la_oenb[123]
*427 la_oenb[124]
*428 la_oenb[125]
*429 la_oenb[126]
*430 la_oenb[127]
*431 la_oenb[12]
*432 la_oenb[13]
*433 la_oenb[14]
*434 la_oenb[15]
*435 la_oenb[16]
*436 la_oenb[17]
*437 la_oenb[18]
*438 la_oenb[19]
*439 la_oenb[1]
*440 la_oenb[20]
*441 la_oenb[21]
*442 la_oenb[22]
*443 la_oenb[23]
*444 la_oenb[24]
*445 la_oenb[25]
*446 la_oenb[26]
*447 la_oenb[27]
*448 la_oenb[28]
*449 la_oenb[29]
*450 la_oenb[2]
*451 la_oenb[30]
*452 la_oenb[31]
*453 la_oenb[32]
*454 la_oenb[33]
*455 la_oenb[34]
*456 la_oenb[35]
*457 la_oenb[36]
*458 la_oenb[37]
*459 la_oenb[38]
*460 la_oenb[39]
*461 la_oenb[3]
*462 la_oenb[40]
*463 la_oenb[41]
*464 la_oenb[42]
*465 la_oenb[43]
*466 la_oenb[44]
*467 la_oenb[45]
*468 la_oenb[46]
*469 la_oenb[47]
*470 la_oenb[48]
*471 la_oenb[49]
*472 la_oenb[4]
*473 la_oenb[50]
*474 la_oenb[51]
*475 la_oenb[52]
*476 la_oenb[53]
*477 la_oenb[54]
*478 la_oenb[55]
*479 la_oenb[56]
*480 la_oenb[57]
*481 la_oenb[58]
*482 la_oenb[59]
*483 la_oenb[5]
*484 la_oenb[60]
*485 la_oenb[61]
*486 la_oenb[62]
*487 la_oenb[63]
*488 la_oenb[64]
*489 la_oenb[65]
*490 la_oenb[66]
*491 la_oenb[67]
*492 la_oenb[68]
*493 la_oenb[69]
*494 la_oenb[6]
*495 la_oenb[70]
*496 la_oenb[71]
*497 la_oenb[72]
*498 la_oenb[73]
*499 la_oenb[74]
*500 la_oenb[75]
*501 la_oenb[76]
*502 la_oenb[77]
*503 la_oenb[78]
*504 la_oenb[79]
*505 la_oenb[7]
*506 la_oenb[80]
*507 la_oenb[81]
*508 la_oenb[82]
*509 la_oenb[83]
*510 la_oenb[84]
*511 la_oenb[85]
*512 la_oenb[86]
*513 la_oenb[87]
*514 la_oenb[88]
*515 la_oenb[89]
*516 la_oenb[8]
*517 la_oenb[90]
*518 la_oenb[91]
*519 la_oenb[92]
*520 la_oenb[93]
*521 la_oenb[94]
*522 la_oenb[95]
*523 la_oenb[96]
*524 la_oenb[97]
*525 la_oenb[98]
*526 la_oenb[99]
*527 la_oenb[9]
*528 user_clock2
*529 user_irq[0]
*530 user_irq[1]
*531 user_irq[2]
*540 wb_clk_i
*541 wb_rst_i
*542 wbs_ack_o
*543 wbs_adr_i[0]
*544 wbs_adr_i[10]
*545 wbs_adr_i[11]
*546 wbs_adr_i[12]
*547 wbs_adr_i[13]
*548 wbs_adr_i[14]
*549 wbs_adr_i[15]
*550 wbs_adr_i[16]
*551 wbs_adr_i[17]
*552 wbs_adr_i[18]
*553 wbs_adr_i[19]
*554 wbs_adr_i[1]
*555 wbs_adr_i[20]
*556 wbs_adr_i[21]
*557 wbs_adr_i[22]
*558 wbs_adr_i[23]
*559 wbs_adr_i[24]
*560 wbs_adr_i[25]
*561 wbs_adr_i[26]
*562 wbs_adr_i[27]
*563 wbs_adr_i[28]
*564 wbs_adr_i[29]
*565 wbs_adr_i[2]
*566 wbs_adr_i[30]
*567 wbs_adr_i[31]
*568 wbs_adr_i[3]
*569 wbs_adr_i[4]
*570 wbs_adr_i[5]
*571 wbs_adr_i[6]
*572 wbs_adr_i[7]
*573 wbs_adr_i[8]
*574 wbs_adr_i[9]
*575 wbs_cyc_i
*576 wbs_dat_i[0]
*577 wbs_dat_i[10]
*578 wbs_dat_i[11]
*579 wbs_dat_i[12]
*580 wbs_dat_i[13]
*581 wbs_dat_i[14]
*582 wbs_dat_i[15]
*583 wbs_dat_i[16]
*584 wbs_dat_i[17]
*585 wbs_dat_i[18]
*586 wbs_dat_i[19]
*587 wbs_dat_i[1]
*588 wbs_dat_i[20]
*589 wbs_dat_i[21]
*590 wbs_dat_i[22]
*591 wbs_dat_i[23]
*592 wbs_dat_i[24]
*593 wbs_dat_i[25]
*594 wbs_dat_i[26]
*595 wbs_dat_i[27]
*596 wbs_dat_i[28]
*597 wbs_dat_i[29]
*598 wbs_dat_i[2]
*599 wbs_dat_i[30]
*600 wbs_dat_i[31]
*601 wbs_dat_i[3]
*602 wbs_dat_i[4]
*603 wbs_dat_i[5]
*604 wbs_dat_i[6]
*605 wbs_dat_i[7]
*606 wbs_dat_i[8]
*607 wbs_dat_i[9]
*608 wbs_dat_o[0]
*609 wbs_dat_o[10]
*610 wbs_dat_o[11]
*611 wbs_dat_o[12]
*612 wbs_dat_o[13]
*613 wbs_dat_o[14]
*614 wbs_dat_o[15]
*615 wbs_dat_o[16]
*616 wbs_dat_o[17]
*617 wbs_dat_o[18]
*618 wbs_dat_o[19]
*619 wbs_dat_o[1]
*620 wbs_dat_o[20]
*621 wbs_dat_o[21]
*622 wbs_dat_o[22]
*623 wbs_dat_o[23]
*624 wbs_dat_o[24]
*625 wbs_dat_o[25]
*626 wbs_dat_o[26]
*627 wbs_dat_o[27]
*628 wbs_dat_o[28]
*629 wbs_dat_o[29]
*630 wbs_dat_o[2]
*631 wbs_dat_o[30]
*632 wbs_dat_o[31]
*633 wbs_dat_o[3]
*634 wbs_dat_o[4]
*635 wbs_dat_o[5]
*636 wbs_dat_o[6]
*637 wbs_dat_o[7]
*638 wbs_dat_o[8]
*639 wbs_dat_o[9]
*640 wbs_sel_i[0]
*641 wbs_sel_i[1]
*642 wbs_sel_i[2]
*643 wbs_sel_i[3]
*644 wbs_stb_i
*645 wbs_we_i
*646 phase0
*647 vco_enb
*648 vco_adc2
*649 vco_adc_wrapper

*PORTS
analog_io[0] I
analog_io[10] I
analog_io[11] I
analog_io[12] I
analog_io[13] I
analog_io[14] I
analog_io[15] I
analog_io[16] I
analog_io[17] I
analog_io[18] I
analog_io[19] I
analog_io[1] I
analog_io[20] I
analog_io[21] I
analog_io[22] I
analog_io[23] I
analog_io[24] I
analog_io[25] I
analog_io[26] I
analog_io[27] I
analog_io[28] I
analog_io[2] I
analog_io[3] I
analog_io[4] I
analog_io[5] I
analog_io[6] I
analog_io[7] I
analog_io[8] I
analog_io[9] I
io_in[0] I
io_in[10] I
io_in[11] I
io_in[12] I
io_in[13] I
io_in[14] I
io_in[15] I
io_in[16] I
io_in[17] I
io_in[18] I
io_in[19] I
io_in[1] I
io_in[20] I
io_in[21] I
io_in[22] I
io_in[23] I
io_in[24] I
io_in[25] I
io_in[26] I
io_in[27] I
io_in[28] I
io_in[29] I
io_in[2] I
io_in[30] I
io_in[31] I
io_in[32] I
io_in[33] I
io_in[34] I
io_in[35] I
io_in[36] I
io_in[37] I
io_in[3] I
io_in[4] I
io_in[5] I
io_in[6] I
io_in[7] I
io_in[8] I
io_in[9] I
io_oeb[0] O
io_oeb[10] O
io_oeb[11] O
io_oeb[12] O
io_oeb[13] O
io_oeb[14] O
io_oeb[15] O
io_oeb[16] O
io_oeb[17] O
io_oeb[18] O
io_oeb[19] O
io_oeb[1] O
io_oeb[20] O
io_oeb[21] O
io_oeb[22] O
io_oeb[23] O
io_oeb[24] O
io_oeb[25] O
io_oeb[26] O
io_oeb[27] O
io_oeb[28] O
io_oeb[29] O
io_oeb[2] O
io_oeb[30] O
io_oeb[31] O
io_oeb[32] O
io_oeb[33] O
io_oeb[34] O
io_oeb[35] O
io_oeb[36] O
io_oeb[37] O
io_oeb[3] O
io_oeb[4] O
io_oeb[5] O
io_oeb[6] O
io_oeb[7] O
io_oeb[8] O
io_oeb[9] O
io_out[0] O
io_out[10] O
io_out[11] O
io_out[12] O
io_out[13] O
io_out[14] O
io_out[15] O
io_out[16] O
io_out[17] O
io_out[18] O
io_out[19] O
io_out[1] O
io_out[20] O
io_out[21] O
io_out[22] O
io_out[23] O
io_out[24] O
io_out[25] O
io_out[26] O
io_out[27] O
io_out[28] O
io_out[29] O
io_out[2] O
io_out[30] O
io_out[31] O
io_out[32] O
io_out[33] O
io_out[34] O
io_out[35] O
io_out[36] O
io_out[37] O
io_out[3] O
io_out[4] O
io_out[5] O
io_out[6] O
io_out[7] O
io_out[8] O
io_out[9] O
la_data_in[0] I
la_data_in[100] I
la_data_in[101] I
la_data_in[102] I
la_data_in[103] I
la_data_in[104] I
la_data_in[105] I
la_data_in[106] I
la_data_in[107] I
la_data_in[108] I
la_data_in[109] I
la_data_in[10] I
la_data_in[110] I
la_data_in[111] I
la_data_in[112] I
la_data_in[113] I
la_data_in[114] I
la_data_in[115] I
la_data_in[116] I
la_data_in[117] I
la_data_in[118] I
la_data_in[119] I
la_data_in[11] I
la_data_in[120] I
la_data_in[121] I
la_data_in[122] I
la_data_in[123] I
la_data_in[124] I
la_data_in[125] I
la_data_in[126] I
la_data_in[127] I
la_data_in[12] I
la_data_in[13] I
la_data_in[14] I
la_data_in[15] I
la_data_in[16] I
la_data_in[17] I
la_data_in[18] I
la_data_in[19] I
la_data_in[1] I
la_data_in[20] I
la_data_in[21] I
la_data_in[22] I
la_data_in[23] I
la_data_in[24] I
la_data_in[25] I
la_data_in[26] I
la_data_in[27] I
la_data_in[28] I
la_data_in[29] I
la_data_in[2] I
la_data_in[30] I
la_data_in[31] I
la_data_in[32] I
la_data_in[33] I
la_data_in[34] I
la_data_in[35] I
la_data_in[36] I
la_data_in[37] I
la_data_in[38] I
la_data_in[39] I
la_data_in[3] I
la_data_in[40] I
la_data_in[41] I
la_data_in[42] I
la_data_in[43] I
la_data_in[44] I
la_data_in[45] I
la_data_in[46] I
la_data_in[47] I
la_data_in[48] I
la_data_in[49] I
la_data_in[4] I
la_data_in[50] I
la_data_in[51] I
la_data_in[52] I
la_data_in[53] I
la_data_in[54] I
la_data_in[55] I
la_data_in[56] I
la_data_in[57] I
la_data_in[58] I
la_data_in[59] I
la_data_in[5] I
la_data_in[60] I
la_data_in[61] I
la_data_in[62] I
la_data_in[63] I
la_data_in[64] I
la_data_in[65] I
la_data_in[66] I
la_data_in[67] I
la_data_in[68] I
la_data_in[69] I
la_data_in[6] I
la_data_in[70] I
la_data_in[71] I
la_data_in[72] I
la_data_in[73] I
la_data_in[74] I
la_data_in[75] I
la_data_in[76] I
la_data_in[77] I
la_data_in[78] I
la_data_in[79] I
la_data_in[7] I
la_data_in[80] I
la_data_in[81] I
la_data_in[82] I
la_data_in[83] I
la_data_in[84] I
la_data_in[85] I
la_data_in[86] I
la_data_in[87] I
la_data_in[88] I
la_data_in[89] I
la_data_in[8] I
la_data_in[90] I
la_data_in[91] I
la_data_in[92] I
la_data_in[93] I
la_data_in[94] I
la_data_in[95] I
la_data_in[96] I
la_data_in[97] I
la_data_in[98] I
la_data_in[99] I
la_data_in[9] I
la_data_out[0] O
la_data_out[100] O
la_data_out[101] O
la_data_out[102] O
la_data_out[103] O
la_data_out[104] O
la_data_out[105] O
la_data_out[106] O
la_data_out[107] O
la_data_out[108] O
la_data_out[109] O
la_data_out[10] O
la_data_out[110] O
la_data_out[111] O
la_data_out[112] O
la_data_out[113] O
la_data_out[114] O
la_data_out[115] O
la_data_out[116] O
la_data_out[117] O
la_data_out[118] O
la_data_out[119] O
la_data_out[11] O
la_data_out[120] O
la_data_out[121] O
la_data_out[122] O
la_data_out[123] O
la_data_out[124] O
la_data_out[125] O
la_data_out[126] O
la_data_out[127] O
la_data_out[12] O
la_data_out[13] O
la_data_out[14] O
la_data_out[15] O
la_data_out[16] O
la_data_out[17] O
la_data_out[18] O
la_data_out[19] O
la_data_out[1] O
la_data_out[20] O
la_data_out[21] O
la_data_out[22] O
la_data_out[23] O
la_data_out[24] O
la_data_out[25] O
la_data_out[26] O
la_data_out[27] O
la_data_out[28] O
la_data_out[29] O
la_data_out[2] O
la_data_out[30] O
la_data_out[31] O
la_data_out[32] O
la_data_out[33] O
la_data_out[34] O
la_data_out[35] O
la_data_out[36] O
la_data_out[37] O
la_data_out[38] O
la_data_out[39] O
la_data_out[3] O
la_data_out[40] O
la_data_out[41] O
la_data_out[42] O
la_data_out[43] O
la_data_out[44] O
la_data_out[45] O
la_data_out[46] O
la_data_out[47] O
la_data_out[48] O
la_data_out[49] O
la_data_out[4] O
la_data_out[50] O
la_data_out[51] O
la_data_out[52] O
la_data_out[53] O
la_data_out[54] O
la_data_out[55] O
la_data_out[56] O
la_data_out[57] O
la_data_out[58] O
la_data_out[59] O
la_data_out[5] O
la_data_out[60] O
la_data_out[61] O
la_data_out[62] O
la_data_out[63] O
la_data_out[64] O
la_data_out[65] O
la_data_out[66] O
la_data_out[67] O
la_data_out[68] O
la_data_out[69] O
la_data_out[6] O
la_data_out[70] O
la_data_out[71] O
la_data_out[72] O
la_data_out[73] O
la_data_out[74] O
la_data_out[75] O
la_data_out[76] O
la_data_out[77] O
la_data_out[78] O
la_data_out[79] O
la_data_out[7] O
la_data_out[80] O
la_data_out[81] O
la_data_out[82] O
la_data_out[83] O
la_data_out[84] O
la_data_out[85] O
la_data_out[86] O
la_data_out[87] O
la_data_out[88] O
la_data_out[89] O
la_data_out[8] O
la_data_out[90] O
la_data_out[91] O
la_data_out[92] O
la_data_out[93] O
la_data_out[94] O
la_data_out[95] O
la_data_out[96] O
la_data_out[97] O
la_data_out[98] O
la_data_out[99] O
la_data_out[9] O
la_oenb[0] I
la_oenb[100] I
la_oenb[101] I
la_oenb[102] I
la_oenb[103] I
la_oenb[104] I
la_oenb[105] I
la_oenb[106] I
la_oenb[107] I
la_oenb[108] I
la_oenb[109] I
la_oenb[10] I
la_oenb[110] I
la_oenb[111] I
la_oenb[112] I
la_oenb[113] I
la_oenb[114] I
la_oenb[115] I
la_oenb[116] I
la_oenb[117] I
la_oenb[118] I
la_oenb[119] I
la_oenb[11] I
la_oenb[120] I
la_oenb[121] I
la_oenb[122] I
la_oenb[123] I
la_oenb[124] I
la_oenb[125] I
la_oenb[126] I
la_oenb[127] I
la_oenb[12] I
la_oenb[13] I
la_oenb[14] I
la_oenb[15] I
la_oenb[16] I
la_oenb[17] I
la_oenb[18] I
la_oenb[19] I
la_oenb[1] I
la_oenb[20] I
la_oenb[21] I
la_oenb[22] I
la_oenb[23] I
la_oenb[24] I
la_oenb[25] I
la_oenb[26] I
la_oenb[27] I
la_oenb[28] I
la_oenb[29] I
la_oenb[2] I
la_oenb[30] I
la_oenb[31] I
la_oenb[32] I
la_oenb[33] I
la_oenb[34] I
la_oenb[35] I
la_oenb[36] I
la_oenb[37] I
la_oenb[38] I
la_oenb[39] I
la_oenb[3] I
la_oenb[40] I
la_oenb[41] I
la_oenb[42] I
la_oenb[43] I
la_oenb[44] I
la_oenb[45] I
la_oenb[46] I
la_oenb[47] I
la_oenb[48] I
la_oenb[49] I
la_oenb[4] I
la_oenb[50] I
la_oenb[51] I
la_oenb[52] I
la_oenb[53] I
la_oenb[54] I
la_oenb[55] I
la_oenb[56] I
la_oenb[57] I
la_oenb[58] I
la_oenb[59] I
la_oenb[5] I
la_oenb[60] I
la_oenb[61] I
la_oenb[62] I
la_oenb[63] I
la_oenb[64] I
la_oenb[65] I
la_oenb[66] I
la_oenb[67] I
la_oenb[68] I
la_oenb[69] I
la_oenb[6] I
la_oenb[70] I
la_oenb[71] I
la_oenb[72] I
la_oenb[73] I
la_oenb[74] I
la_oenb[75] I
la_oenb[76] I
la_oenb[77] I
la_oenb[78] I
la_oenb[79] I
la_oenb[7] I
la_oenb[80] I
la_oenb[81] I
la_oenb[82] I
la_oenb[83] I
la_oenb[84] I
la_oenb[85] I
la_oenb[86] I
la_oenb[87] I
la_oenb[88] I
la_oenb[89] I
la_oenb[8] I
la_oenb[90] I
la_oenb[91] I
la_oenb[92] I
la_oenb[93] I
la_oenb[94] I
la_oenb[95] I
la_oenb[96] I
la_oenb[97] I
la_oenb[98] I
la_oenb[99] I
la_oenb[9] I
user_clock2 I
user_irq[0] O
user_irq[1] O
user_irq[2] O
wb_clk_i I
wb_rst_i I
wbs_ack_o O
wbs_adr_i[0] I
wbs_adr_i[10] I
wbs_adr_i[11] I
wbs_adr_i[12] I
wbs_adr_i[13] I
wbs_adr_i[14] I
wbs_adr_i[15] I
wbs_adr_i[16] I
wbs_adr_i[17] I
wbs_adr_i[18] I
wbs_adr_i[19] I
wbs_adr_i[1] I
wbs_adr_i[20] I
wbs_adr_i[21] I
wbs_adr_i[22] I
wbs_adr_i[23] I
wbs_adr_i[24] I
wbs_adr_i[25] I
wbs_adr_i[26] I
wbs_adr_i[27] I
wbs_adr_i[28] I
wbs_adr_i[29] I
wbs_adr_i[2] I
wbs_adr_i[30] I
wbs_adr_i[31] I
wbs_adr_i[3] I
wbs_adr_i[4] I
wbs_adr_i[5] I
wbs_adr_i[6] I
wbs_adr_i[7] I
wbs_adr_i[8] I
wbs_adr_i[9] I
wbs_cyc_i I
wbs_dat_i[0] I
wbs_dat_i[10] I
wbs_dat_i[11] I
wbs_dat_i[12] I
wbs_dat_i[13] I
wbs_dat_i[14] I
wbs_dat_i[15] I
wbs_dat_i[16] I
wbs_dat_i[17] I
wbs_dat_i[18] I
wbs_dat_i[19] I
wbs_dat_i[1] I
wbs_dat_i[20] I
wbs_dat_i[21] I
wbs_dat_i[22] I
wbs_dat_i[23] I
wbs_dat_i[24] I
wbs_dat_i[25] I
wbs_dat_i[26] I
wbs_dat_i[27] I
wbs_dat_i[28] I
wbs_dat_i[29] I
wbs_dat_i[2] I
wbs_dat_i[30] I
wbs_dat_i[31] I
wbs_dat_i[3] I
wbs_dat_i[4] I
wbs_dat_i[5] I
wbs_dat_i[6] I
wbs_dat_i[7] I
wbs_dat_i[8] I
wbs_dat_i[9] I
wbs_dat_o[0] O
wbs_dat_o[10] O
wbs_dat_o[11] O
wbs_dat_o[12] O
wbs_dat_o[13] O
wbs_dat_o[14] O
wbs_dat_o[15] O
wbs_dat_o[16] O
wbs_dat_o[17] O
wbs_dat_o[18] O
wbs_dat_o[19] O
wbs_dat_o[1] O
wbs_dat_o[20] O
wbs_dat_o[21] O
wbs_dat_o[22] O
wbs_dat_o[23] O
wbs_dat_o[24] O
wbs_dat_o[25] O
wbs_dat_o[26] O
wbs_dat_o[27] O
wbs_dat_o[28] O
wbs_dat_o[29] O
wbs_dat_o[2] O
wbs_dat_o[30] O
wbs_dat_o[31] O
wbs_dat_o[3] O
wbs_dat_o[4] O
wbs_dat_o[5] O
wbs_dat_o[6] O
wbs_dat_o[7] O
wbs_dat_o[8] O
wbs_dat_o[9] O
wbs_sel_i[0] I
wbs_sel_i[1] I
wbs_sel_i[2] I
wbs_sel_i[3] I
wbs_stb_i I
wbs_we_i I

*D_NET *83 0.189364
*CONN
*P io_oeb[23] O
*I *649:io_oeb[0] O *D vco_adc_wrapper
*CAP
1 io_oeb[23] 0.00538737
2 *649:io_oeb[0] 0.00964122
3 *83:9 0.0850405
4 *83:7 0.0892944
5 *83:9 *84:9 0
*RES
1 *649:io_oeb[0] *83:7 30.8188 
2 *83:7 *83:9 215.457 
3 *83:9 io_oeb[23] 32.3312 
*END

*D_NET *84 0.22573
*CONN
*P io_oeb[24] O
*I *649:io_oeb[1] O *D vco_adc_wrapper
*CAP
1 io_oeb[24] 0.00092337
2 *649:io_oeb[1] 0.0100616
3 *84:9 0.0546825
4 *84:7 0.0638207
5 *84:9 *85:9 0.0962423
6 *83:9 *84:9 0
*RES
1 *649:io_oeb[1] *84:7 32.116 
2 *84:7 *84:9 241.665 
3 *84:9 io_oeb[24] 6.0279 
*END

*D_NET *85 0.228893
*CONN
*P io_oeb[25] O
*I *649:io_oeb[2] O *D vco_adc_wrapper
*CAP
1 io_oeb[25] 0.000880445
2 *649:io_oeb[2] 0.00948153
3 *85:9 0.0568439
4 *85:7 0.065445
5 *84:9 *85:9 0.0962423
*RES
1 *649:io_oeb[2] *85:7 32.2602 
2 *85:7 *85:9 247.737 
3 *85:9 io_oeb[25] 5.88377 
*END

*D_NET *528 0.565862
*CONN
*P user_clock2 I
*I *648:clk I *D vco_adc2
*I *649:user_clock2 I *D vco_adc_wrapper
*CAP
1 user_clock2 0.00113527
2 *648:clk 0.000545481
3 *649:user_clock2 0.000650917
4 *528:39 0.00742258
5 *528:37 0.00687709
6 *528:35 0.0923945
7 *528:25 0.0934202
8 *528:21 0.0485759
9 *528:19 0.0530944
10 *528:9 0.121306
11 *528:7 0.117548
12 *528:9 *549:9 0.00431614
13 *528:9 *556:9 0.00501608
14 *528:9 *557:9 0
15 *528:9 *558:9 0
16 *528:9 *559:9 0
17 *528:9 *560:9 0
18 *528:9 *561:9 0
19 *528:9 *564:9 0
20 *528:9 *567:9 0
21 *528:9 *572:9 0.00718593
22 *528:19 wbs_dat_o[13] 0
23 *528:19 *649:wbs_dat_i[0] 0
24 *528:19 *543:11 0
25 *528:19 *544:9 0
26 *528:19 *545:9 0.000945006
27 *528:19 *573:9 0
28 *528:19 *574:9 0
29 *528:19 *577:9 0.00542841
30 *528:19 *580:7 0
*RES
1 user_clock2 *528:7 27.7857 
2 *528:7 *528:9 2320.66 
3 *528:9 *528:19 34.2032 
4 *528:19 *528:21 992.143 
5 *528:21 *528:25 7.42857 
6 *528:25 *649:user_clock2 5.19913 
7 *528:25 *528:35 1840.83 
8 *528:35 *528:37 4.5 
9 *528:37 *528:39 131.143 
10 *528:39 *648:clk 24.375 
*END

*D_NET *540 0.135422
*CONN
*P wb_clk_i I
*I *649:wb_clk_i I *D vco_adc_wrapper
*CAP
1 wb_clk_i 0.000658068
2 *649:wb_clk_i 0.0427424
3 *540:16 8.30043e-06
4 *540:11 0.0477172
5 *540:7 0.00564117
6 *649:wb_clk_i *574:7 0.000426413
7 *540:11 *541:11 0.0207985
8 *540:11 *542:10 8.73551e-05
9 *540:11 *575:11 0.000248896
10 *540:11 *633:8 0.000344482
11 *540:11 *637:8 0.000934799
12 *540:11 *640:11 0.00123294
13 *540:11 *641:11 0.0138338
14 *540:11 *645:11 0.000747331
*RES
1 wb_clk_i *540:7 16.8296 
2 *540:7 *540:11 37.5445 
3 *540:11 *649:wb_clk_i 878.554 
4 *649:wb_clk_i *540:16 0.169643 
*END

*D_NET *541 0.126627
*CONN
*P wb_rst_i I
*I *649:wb_rst_i I *D vco_adc_wrapper
*CAP
1 wb_rst_i 0.000647216
2 *649:wb_rst_i 0.0429429
3 *541:16 8.30043e-06
4 *541:11 0.0511864
5 *541:7 0.00889902
6 *649:wb_rst_i wbs_dat_o[9] 0
7 *649:wb_rst_i *607:7 0
8 *541:11 *638:8 0.00159747
9 *541:11 *641:11 0.000546857
10 *540:11 *541:11 0.0207985
*RES
1 wb_rst_i *541:7 16.2225 
2 *541:7 *541:11 38.4093 
3 *541:11 *649:wb_rst_i 879.161 
4 *649:wb_rst_i *541:16 0.169643 
*END

*D_NET *542 0.127088
*CONN
*P wbs_ack_o O
*I *649:wbs_ack_o O *D vco_adc_wrapper
*CAP
1 wbs_ack_o 0.000820285
2 *649:wbs_ack_o 0.0426897
3 *542:19 8.30043e-06
4 *542:10 0.00828047
5 *542:4 0.0501416
6 *542:4 *544:7 0
7 *542:4 *577:7 0
8 *542:10 *554:11 0
9 *542:10 *565:11 0
10 *542:10 *568:9 0.00292831
11 *542:10 *575:11 0.0218203
12 *542:10 *576:11 0
13 *542:10 *587:11 0
14 *542:10 *598:11 0
15 *542:10 *633:8 0.000311826
16 *540:11 *542:10 8.73551e-05
*RES
1 *649:wbs_ack_o *542:4 875.518 
2 *542:4 *542:10 42.6121 
3 *542:10 wbs_ack_o 16.4554 
4 *649:wbs_ack_o *542:19 0.169643 
*END

*D_NET *543 0.130447
*CONN
*P wbs_adr_i[0] I
*I *649:wbs_adr_i[0] I *D vco_adc_wrapper
*CAP
1 wbs_adr_i[0] 0.0011732
2 *649:wbs_adr_i[0] 0.0423118
3 *543:16 8.30043e-06
4 *543:11 0.0495488
5 *543:7 0.00841844
6 *543:11 *573:9 0.00463527
7 *543:11 *576:11 0.0243516
8 *528:19 *543:11 0
*RES
1 wbs_adr_i[0] *543:7 26.5439 
2 *543:7 *543:11 42.373 
3 *543:11 *649:wbs_adr_i[0] 868.839 
4 *649:wbs_adr_i[0] *543:16 0.169643 
*END

*D_NET *544 0.17295
*CONN
*P wbs_adr_i[10] I
*I *649:wbs_adr_i[10] I *D vco_adc_wrapper
*CAP
1 wbs_adr_i[10] 0.00145892
2 *649:wbs_adr_i[10] 0.0437337
3 *544:16 8.30043e-06
4 *544:11 0.0437254
5 *544:9 0.00843322
6 *544:7 0.00989214
7 *544:9 *549:9 0.0009037
8 *544:9 *566:9 0.00682753
9 *544:9 *567:9 0.000924681
10 *544:9 *574:9 0.0389578
11 *544:9 *577:9 0.000336355
12 *544:9 *578:9 0.000466034
13 *544:9 *579:9 0.000647598
14 *544:9 *580:9 0.016635
15 *528:19 *544:9 0
16 *542:4 *544:7 0
*RES
1 wbs_adr_i[10] *544:7 28.9725 
2 *544:7 *544:9 66.2763 
3 *544:9 *544:11 3.41 
4 *544:11 *649:wbs_adr_i[10] 866.411 
5 *649:wbs_adr_i[10] *544:16 0.169643 
*END

*D_NET *545 0.154479
*CONN
*P wbs_adr_i[11] I
*I *649:wbs_adr_i[11] I *D vco_adc_wrapper
*CAP
1 wbs_adr_i[11] 0.00175717
2 *649:wbs_adr_i[11] 0.0419324
3 *545:16 8.30043e-06
4 *545:11 0.0419241
5 *545:9 0.0152986
6 *545:7 0.0170558
7 *545:7 *649:wbs_cyc_i 0
8 *545:9 *546:9 0
9 *545:9 *547:9 0.000164307
10 *545:9 *577:9 0.00531619
11 *545:9 *578:9 0
12 *545:9 *585:9 0.000555333
13 *545:9 *586:9 0.000914752
14 *545:9 *588:9 0.0267738
15 *545:9 *612:8 0.00183324
16 *528:19 *545:9 0.000945006
*RES
1 wbs_adr_i[11] *545:7 35.0439 
2 *545:7 *545:9 68.7265 
3 *545:9 *545:11 3.41 
4 *545:11 *649:wbs_adr_i[11] 860.339 
5 *649:wbs_adr_i[11] *545:16 0.169643 
*END

*D_NET *546 0.162453
*CONN
*P wbs_adr_i[12] I
*I *649:wbs_adr_i[12] I *D vco_adc_wrapper
*CAP
1 wbs_adr_i[12] 0.00167524
2 *649:wbs_adr_i[12] 0.0416601
3 *546:16 8.30043e-06
4 *546:11 0.0416518
5 *546:9 0.0155973
6 *546:7 0.0172725
7 *546:7 *649:wbs_we_i 0.000811649
8 *546:9 *547:9 0.0437756
9 *545:9 *546:9 0
*RES
1 wbs_adr_i[12] *546:7 38.6868 
2 *546:7 *546:9 71.1047 
3 *546:9 *546:11 3.41 
4 *546:11 *649:wbs_adr_i[12] 856.696 
5 *649:wbs_adr_i[12] *546:16 0.169643 
*END

*D_NET *547 0.192607
*CONN
*P wbs_adr_i[13] I
*I *649:wbs_adr_i[13] I *D vco_adc_wrapper
*CAP
1 wbs_adr_i[13] 0.00193415
2 *649:wbs_adr_i[13] 0.0416898
3 *547:16 8.30043e-06
4 *547:11 0.0416815
5 *547:9 0.00775843
6 *547:7 0.00969258
7 *547:9 *612:8 0.0459023
8 *545:9 *547:9 0.000164307
9 *546:9 *547:9 0.0437756
*RES
1 wbs_adr_i[13] *547:7 38.0796 
2 *547:7 *547:9 73.555 
3 *547:9 *547:11 3.41 
4 *547:11 *649:wbs_adr_i[13] 857.304 
5 *649:wbs_adr_i[13] *547:16 0.169643 
*END

*D_NET *548 0.194765
*CONN
*P wbs_adr_i[14] I
*I *649:wbs_adr_i[14] I *D vco_adc_wrapper
*CAP
1 wbs_adr_i[14] 0.00105383
2 *649:wbs_adr_i[14] 0.042643
3 *548:16 8.30043e-06
4 *548:11 0.0426347
5 *548:9 0.013275
6 *548:7 0.0143288
7 *548:9 *552:9 0.000430099
8 *548:9 *553:9 0.000998365
9 *548:9 *555:9 0.0379122
10 *548:9 *562:9 0.0101857
11 *548:9 *568:9 0.0109582
12 *548:9 *598:11 0.00766001
13 *548:9 *602:9 0.000193147
14 *548:9 *603:9 0.00688544
15 *548:9 *604:9 0.000222187
16 *548:9 *613:8 0.00537597
*RES
1 wbs_adr_i[14] *548:7 22.9011 
2 *548:7 *548:9 75.9332 
3 *548:9 *548:11 3.41 
4 *548:11 *649:wbs_adr_i[14] 872.482 
5 *649:wbs_adr_i[14] *548:16 0.169643 
*END

*D_NET *549 0.182157
*CONN
*P wbs_adr_i[15] I
*I *649:wbs_adr_i[15] I *D vco_adc_wrapper
*CAP
1 wbs_adr_i[15] 0.00131134
2 *649:wbs_adr_i[15] 0.042367
3 *549:16 8.30043e-06
4 *549:11 0.0423587
5 *549:9 0.0104681
6 *549:7 0.0117795
7 *549:7 *649:wbs_adr_i[1] 0
8 *549:9 *550:9 0.0483288
9 *549:9 *554:11 0.000204407
10 *549:9 *565:11 9.93199e-05
11 *549:9 *566:9 0.00324275
12 *549:9 *573:9 0.0151451
13 *549:9 *574:9 0.00120048
14 *549:9 *587:11 0.000423064
15 *528:9 *549:9 0.00431614
16 *544:9 *549:9 0.0009037
*RES
1 wbs_adr_i[15] *549:7 26.5439 
2 *549:7 *549:9 78.3835 
3 *549:9 *549:11 3.41 
4 *549:11 *649:wbs_adr_i[15] 868.839 
5 *649:wbs_adr_i[15] *549:16 0.169643 
*END

*D_NET *550 0.206354
*CONN
*P wbs_adr_i[16] I
*I *649:wbs_adr_i[16] I *D vco_adc_wrapper
*CAP
1 wbs_adr_i[16] 0.00126494
2 *649:wbs_adr_i[16] 0.0438033
3 *550:16 8.30043e-06
4 *550:11 0.043795
5 *550:9 0.00848664
6 *550:7 0.00975157
7 *550:7 *649:wbs_dat_i[1] 0
8 *550:9 *551:9 0.0498693
9 *550:9 *565:11 0.000680098
10 *550:9 *566:9 0
11 *550:9 *572:9 0.000365799
12 *549:9 *550:9 0.0483288
*RES
1 wbs_adr_i[16] *550:7 25.9368 
2 *550:7 *550:9 80.7617 
3 *550:9 *550:11 3.41 
4 *550:11 *649:wbs_adr_i[16] 869.446 
5 *649:wbs_adr_i[16] *550:16 0.169643 
*END

*D_NET *551 0.210688
*CONN
*P wbs_adr_i[17] I
*I *649:wbs_adr_i[17] I *D vco_adc_wrapper
*CAP
1 wbs_adr_i[17] 0.0011308
2 *649:wbs_adr_i[17] 0.042407
3 *551:16 8.30043e-06
4 *551:11 0.0423987
5 *551:9 0.00916786
6 *551:7 0.0102987
7 *551:7 *649:wbs_sel_i[1] 0.000291907
8 *551:9 *552:9 0.0514339
9 *551:9 *565:11 0.000636686
10 *551:9 *566:9 0
11 *551:9 *572:9 0.00280811
12 *551:9 *598:11 0.000236939
13 *550:9 *551:9 0.0498693
*RES
1 wbs_adr_i[17] *551:7 25.3296 
2 *551:7 *551:9 83.2119 
3 *551:9 *551:11 3.41 
4 *551:11 *649:wbs_adr_i[17] 870.054 
5 *649:wbs_adr_i[17] *551:16 0.169643 
*END

*D_NET *552 0.230714
*CONN
*P wbs_adr_i[18] I
*I *649:wbs_adr_i[18] I *D vco_adc_wrapper
*CAP
1 wbs_adr_i[18] 0.00119133
2 *649:wbs_adr_i[18] 0.0424336
3 *552:16 8.30043e-06
4 *552:11 0.0424253
5 *552:9 0.00951775
6 *552:7 0.0107091
7 *552:9 *553:9 0.0530355
8 *552:9 *556:9 0.00988074
9 *552:9 *557:9 0.00883945
10 *552:9 *566:9 0
11 *552:9 *598:11 0.000309381
12 *552:9 *601:9 0.000311475
13 *552:9 *605:9 0.000188464
14 *548:9 *552:9 0.000430099
15 *551:9 *552:9 0.0514339
*RES
1 wbs_adr_i[18] *552:7 24.7225 
2 *552:7 *552:9 85.5901 
3 *552:9 *552:11 3.41 
4 *552:11 *649:wbs_adr_i[18] 870.661 
5 *649:wbs_adr_i[18] *552:16 0.169643 
*END

*D_NET *553 0.235133
*CONN
*P wbs_adr_i[19] I
*I *649:wbs_adr_i[19] I *D vco_adc_wrapper
*CAP
1 wbs_adr_i[19] 0.00115059
2 *649:wbs_adr_i[19] 0.0424688
3 *553:16 8.30043e-06
4 *553:11 0.0424605
5 *553:9 0.00977797
6 *553:7 0.0109286
7 *553:9 *555:9 0.0545611
8 *553:9 *558:9 0.00998906
9 *553:9 *559:9 0.00883949
10 *553:9 *566:9 0
11 *553:9 *601:9 0.000441237
12 *553:9 *602:9 0.000227799
13 *553:9 *604:9 0.000245641
14 *548:9 *553:9 0.000998365
15 *552:9 *553:9 0.0530355
*RES
1 wbs_adr_i[19] *553:7 24.1154 
2 *553:7 *553:9 88.0404 
3 *553:9 *553:11 3.41 
4 *553:11 *649:wbs_adr_i[19] 871.268 
5 *649:wbs_adr_i[19] *553:16 0.169643 
*END

*D_NET *554 0.147716
*CONN
*P wbs_adr_i[1] I
*I *649:wbs_adr_i[1] I *D vco_adc_wrapper
*CAP
1 wbs_adr_i[1] 0.00112278
2 *649:wbs_adr_i[1] 0.0424046
3 *554:16 8.30043e-06
4 *554:11 0.0470254
5 *554:7 0.00575192
6 *649:wbs_adr_i[1] *582:7 0
7 *554:11 *572:9 0.000386351
8 *554:11 *573:9 0.000762986
9 *554:11 *576:11 0.0236738
10 *554:11 *587:11 0.0263754
11 *542:10 *554:11 0
12 *549:7 *649:wbs_adr_i[1] 0
13 *549:9 *554:11 0.000204407
*RES
1 wbs_adr_i[1] *554:7 25.3296 
2 *554:7 *554:11 45.616 
3 *554:11 *649:wbs_adr_i[1] 870.054 
4 *649:wbs_adr_i[1] *554:16 0.169643 
*END

*D_NET *555 0.23699
*CONN
*P wbs_adr_i[20] I
*I *649:wbs_adr_i[20] I *D vco_adc_wrapper
*CAP
1 wbs_adr_i[20] 0.0011019
2 *649:wbs_adr_i[20] 0.042495
3 *555:16 8.30043e-06
4 *555:11 0.0424867
5 *555:9 0.0142667
6 *555:7 0.0153686
7 *555:9 *560:9 0.010172
8 *555:9 *561:9 0.00940824
9 *555:9 *562:9 0.00719673
10 *555:9 *566:9 0
11 *555:9 *602:9 0.00076869
12 *555:9 *604:9 0.00124381
13 *555:9 *613:8 0
14 *555:9 *615:8 0
15 *555:9 *617:8 0
16 *555:9 *620:8 0
17 *548:9 *555:9 0.0379122
18 *553:9 *555:9 0.0545611
*RES
1 wbs_adr_i[20] *555:7 23.5082 
2 *555:7 *555:9 90.4186 
3 *555:9 *555:11 3.41 
4 *555:11 *649:wbs_adr_i[20] 871.875 
5 *649:wbs_adr_i[20] *555:16 0.169643 
*END

*D_NET *556 0.194933
*CONN
*P wbs_adr_i[21] I
*I *649:wbs_adr_i[21] I *D vco_adc_wrapper
*CAP
1 wbs_adr_i[21] 0.00122071
2 *649:wbs_adr_i[21] 0.0423658
3 *556:16 8.30043e-06
4 *556:11 0.0423575
5 *556:9 0.0128508
6 *556:7 0.0140716
7 *556:9 *557:9 0.054533
8 *556:9 *572:9 0.012162
9 *556:9 *602:9 0.000466961
10 *528:9 *556:9 0.00501608
11 *552:9 *556:9 0.00988074
*RES
1 wbs_adr_i[21] *556:7 26.2679 
2 *556:7 *556:9 528.714 
3 *556:9 *556:11 4.5 
4 *556:11 *649:wbs_adr_i[21] 870.205 
5 *649:wbs_adr_i[21] *556:16 0.169643 
*END

*D_NET *557 0.222246
*CONN
*P wbs_adr_i[22] I
*I *649:wbs_adr_i[22] I *D vco_adc_wrapper
*CAP
1 wbs_adr_i[22] 0.0011956
2 *649:wbs_adr_i[22] 0.0423658
3 *557:16 8.30043e-06
4 *557:11 0.0423575
5 *557:9 0.00755487
6 *557:7 0.00875047
7 *557:9 *558:9 0.0559872
8 *557:9 *602:9 0.000653602
9 *528:9 *557:9 0
10 *552:9 *557:9 0.00883945
11 *556:9 *557:9 0.054533
*RES
1 wbs_adr_i[22] *557:7 25.9643 
2 *557:7 *557:9 542.679 
3 *557:9 *557:11 4.5 
4 *557:11 *649:wbs_adr_i[22] 870.509 
5 *649:wbs_adr_i[22] *557:16 0.169643 
*END

*D_NET *558 0.229511
*CONN
*P wbs_adr_i[23] I
*I *649:wbs_adr_i[23] I *D vco_adc_wrapper
*CAP
1 wbs_adr_i[23] 0.00117668
2 *649:wbs_adr_i[23] 0.0438045
3 *558:16 8.30043e-06
4 *558:11 0.0437962
5 *558:9 0.00769162
6 *558:7 0.0088683
7 *558:9 *559:9 0.0574791
8 *558:9 *602:9 0.000245832
9 *558:9 *604:9 0.000463756
10 *528:9 *558:9 0
11 *553:9 *558:9 0.00998906
12 *557:9 *558:9 0.0559872
*RES
1 wbs_adr_i[23] *558:7 25.6607 
2 *558:7 *558:9 556.232 
3 *558:9 *558:11 4.5 
4 *558:11 *649:wbs_adr_i[23] 870.812 
5 *649:wbs_adr_i[23] *558:16 0.169643 
*END

*D_NET *559 0.228913
*CONN
*P wbs_adr_i[24] I
*I *649:wbs_adr_i[24] I *D vco_adc_wrapper
*CAP
1 wbs_adr_i[24] 0.00115788
2 *649:wbs_adr_i[24] 0.0423826
3 *559:16 8.30043e-06
4 *559:11 0.0423743
5 *559:9 0.00782595
6 *559:7 0.00898383
7 *559:9 *560:9 0.0589324
8 *559:9 *604:9 0.00092932
9 *528:9 *559:9 0
10 *553:9 *559:9 0.00883949
11 *558:9 *559:9 0.0574791
*RES
1 wbs_adr_i[24] *559:7 25.3571 
2 *559:7 *559:9 570.196 
3 *559:9 *559:11 4.5 
4 *559:11 *649:wbs_adr_i[24] 871.116 
5 *649:wbs_adr_i[24] *559:16 0.169643 
*END

*D_NET *560 0.233534
*CONN
*P wbs_adr_i[25] I
*I *649:wbs_adr_i[25] I *D vco_adc_wrapper
*CAP
1 wbs_adr_i[25] 0.00113297
2 *649:wbs_adr_i[25] 0.0423831
3 *560:16 8.30043e-06
4 *560:11 0.0423748
5 *560:9 0.00806706
6 *560:7 0.00920003
7 *560:9 *561:9 0.060427
8 *560:9 *604:9 0.000836053
9 *528:9 *560:9 0
10 *555:9 *560:9 0.010172
11 *559:9 *560:9 0.0589324
*RES
1 wbs_adr_i[25] *560:7 25.0536 
2 *560:7 *560:9 583.75 
3 *560:9 *560:11 4.5 
4 *560:11 *649:wbs_adr_i[25] 871.42 
5 *649:wbs_adr_i[25] *560:16 0.169643 
*END

*D_NET *561 0.235469
*CONN
*P wbs_adr_i[26] I
*I *649:wbs_adr_i[26] I *D vco_adc_wrapper
*CAP
1 wbs_adr_i[26] 0.00110196
2 *649:wbs_adr_i[26] 0.0423916
3 *561:16 8.30043e-06
4 *561:11 0.0423833
5 *561:9 0.00838768
6 *561:7 0.00948964
7 *561:7 *635:4 0
8 *561:9 *562:9 0.0618711
9 *528:9 *561:9 0
10 *555:9 *561:9 0.00940824
11 *560:9 *561:9 0.060427
*RES
1 wbs_adr_i[26] *561:7 24.75 
2 *561:7 *561:9 597.714 
3 *561:9 *561:11 4.5 
4 *561:11 *649:wbs_adr_i[26] 871.723 
5 *649:wbs_adr_i[26] *561:16 0.169643 
*END

*D_NET *562 0.207235
*CONN
*P wbs_adr_i[27] I
*I *649:wbs_adr_i[27] I *D vco_adc_wrapper
*CAP
1 wbs_adr_i[27] 0.000990461
2 *649:wbs_adr_i[27] 0.0423933
3 *562:16 8.30043e-06
4 *562:11 0.042385
5 *562:9 0.0204798
6 *562:7 0.0214703
7 *562:7 *610:12 0.000254158
8 *562:9 *599:11 0
9 *548:9 *562:9 0.0101857
10 *555:9 *562:9 0.00719673
11 *561:9 *562:9 0.0618711
*RES
1 wbs_adr_i[27] *562:7 24.4464 
2 *562:7 *562:9 611.268 
3 *562:9 *562:11 4.5 
4 *562:11 *649:wbs_adr_i[27] 872.027 
5 *649:wbs_adr_i[27] *562:16 0.169643 
*END

*D_NET *563 0.243099
*CONN
*P wbs_adr_i[28] I
*I *649:wbs_adr_i[28] I *D vco_adc_wrapper
*CAP
1 wbs_adr_i[28] 0.00153537
2 *649:wbs_adr_i[28] 0.0420271
3 *563:16 8.30043e-06
4 *563:11 0.0420188
5 *563:9 0.00959782
6 *563:7 0.0111332
7 *563:7 *649:wbs_adr_i[7] 0
8 *563:9 *564:9 0.0643636
9 *563:9 *566:9 0.0141859
10 *563:9 *580:9 0.000815337
11 *563:9 *584:9 0.00410065
12 *563:9 *594:17 0.053313
*RES
1 wbs_adr_i[28] *563:7 31.125 
2 *563:7 *563:9 625.232 
3 *563:9 *563:11 4.5 
4 *563:11 *649:wbs_adr_i[28] 865.348 
5 *649:wbs_adr_i[28] *563:16 0.169643 
*END

*D_NET *564 0.248768
*CONN
*P wbs_adr_i[29] I
*I *649:wbs_adr_i[29] I *D vco_adc_wrapper
*CAP
1 wbs_adr_i[29] 0.00151827
2 *649:wbs_adr_i[29] 0.0420359
3 *564:16 8.30043e-06
4 *564:11 0.0420276
5 *564:9 0.00949982
6 *564:7 0.0110181
7 *564:9 *566:9 0.0138247
8 *564:9 *567:9 0.0641567
9 *564:9 *580:9 0.000314987
10 *528:9 *564:9 0
11 *563:9 *564:9 0.0643636
*RES
1 wbs_adr_i[29] *564:7 30.8214 
2 *564:7 *564:9 638.786 
3 *564:9 *564:11 4.5 
4 *564:11 *649:wbs_adr_i[29] 865.652 
5 *649:wbs_adr_i[29] *564:16 0.169643 
*END

*D_NET *565 0.200394
*CONN
*P wbs_adr_i[2] I
*I *649:wbs_adr_i[2] I *D vco_adc_wrapper
*CAP
1 wbs_adr_i[2] 0.00109489
2 *649:wbs_adr_i[2] 2.31538e-05
3 *565:13 0.026898
4 *565:11 0.0323127
5 *565:7 0.00653275
6 *565:11 *572:9 0.000816988
7 *565:11 *587:11 0.0257301
8 *565:11 *598:11 0.0284072
9 *565:11 *601:9 0.00342385
10 *565:11 *605:9 0.00329214
11 *565:13 wbs_dat_o[17] 0.0704463
12 *542:10 *565:11 0
13 *549:9 *565:11 9.93199e-05
14 *550:9 *565:11 0.000680098
15 *551:9 *565:11 0.000636686
*RES
1 wbs_adr_i[2] *565:7 24.1154 
2 *565:7 *565:11 48.7869 
3 *565:11 *565:13 871.375 
4 *565:13 *649:wbs_adr_i[2] 0.473214 
*END

*D_NET *566 0.234848
*CONN
*P wbs_adr_i[30] I
*I *649:wbs_adr_i[30] I *D vco_adc_wrapper
*CAP
1 wbs_adr_i[30] 0.00151304
2 *649:wbs_adr_i[30] 0.0434626
3 *566:16 8.30043e-06
4 *566:11 0.0434543
5 *566:9 0.0337697
6 *566:7 0.0352827
7 *566:9 *567:9 0.0115331
8 *566:9 *580:9 0.0175757
9 *566:9 *582:9 0.000331791
10 *566:9 *583:9 0.000729696
11 *566:9 *584:9 0.00150498
12 *566:9 *588:9 0
13 *566:9 *594:17 0.00760097
14 *544:9 *566:9 0.00682753
15 *549:9 *566:9 0.00324275
16 *550:9 *566:9 0
17 *551:9 *566:9 0
18 *552:9 *566:9 0
19 *553:9 *566:9 0
20 *555:9 *566:9 0
21 *563:9 *566:9 0.0141859
22 *564:9 *566:9 0.0138247
*RES
1 wbs_adr_i[30] *566:7 29.5796 
2 *566:7 *566:9 114.489 
3 *566:9 *566:11 3.41 
4 *566:11 *649:wbs_adr_i[30] 865.804 
5 *649:wbs_adr_i[30] *566:16 0.169643 
*END

*D_NET *567 0.209609
*CONN
*P wbs_adr_i[31] I
*I *649:wbs_adr_i[31] I *D vco_adc_wrapper
*CAP
1 wbs_adr_i[31] 0.0015049
2 *649:wbs_adr_i[31] 0.0420276
3 *567:16 8.30043e-06
4 *567:11 0.0420193
5 *567:9 0.0229648
6 *567:7 0.0244697
7 *528:9 *567:9 0
8 *544:9 *567:9 0.000924681
9 *564:9 *567:9 0.0641567
10 *566:9 *567:9 0.0115331
*RES
1 wbs_adr_i[31] *567:7 30.5179 
2 *567:7 *567:9 666.304 
3 *567:9 *567:11 4.5 
4 *567:11 *649:wbs_adr_i[31] 865.955 
5 *649:wbs_adr_i[31] *567:16 0.169643 
*END

*D_NET *568 0.133756
*CONN
*P wbs_adr_i[3] I
*I *649:wbs_adr_i[3] I *D vco_adc_wrapper
*CAP
1 wbs_adr_i[3] 0.000989202
2 *649:wbs_adr_i[3] 0.0426753
3 *568:16 8.30043e-06
4 *568:11 0.042667
5 *568:9 0.00945917
6 *568:7 0.0104484
7 *649:wbs_adr_i[3] *588:7 0
8 *568:9 *575:11 0.000150244
9 *568:9 *598:11 0.0113343
10 *568:9 *613:8 0.00213813
11 *568:9 *640:11 0
12 *568:9 *645:11 0
13 *542:10 *568:9 0.00292831
14 *548:9 *568:9 0.0109582
*RES
1 wbs_adr_i[3] *568:7 22.2939 
2 *568:7 *568:9 48.6199 
3 *568:9 *568:11 3.41 
4 *568:11 *649:wbs_adr_i[3] 873.089 
5 *649:wbs_adr_i[3] *568:16 0.169643 
*END

*D_NET *569 0.164593
*CONN
*P wbs_adr_i[4] I
*I *649:wbs_adr_i[4] I *D vco_adc_wrapper
*CAP
1 wbs_adr_i[4] 0.000756454
2 *649:wbs_adr_i[4] 0.0443433
3 *569:16 8.30043e-06
4 *569:11 0.044335
5 *569:9 0.00449586
6 *569:7 0.00525232
7 *649:wbs_adr_i[4] wbs_dat_o[22] 3.10885e-05
8 *569:9 *570:9 0.0294313
9 *569:9 *607:9 0.00112813
10 *569:9 *617:8 0.000721391
11 *569:9 *620:8 0.000546501
12 *569:9 *633:8 0.0290405
13 *569:9 *640:11 0.00373473
14 *569:9 *641:11 0.000768327
*RES
1 wbs_adr_i[4] *569:7 19.2857 
2 *569:7 *569:9 295.429 
3 *569:9 *569:11 4.5 
4 *569:11 *649:wbs_adr_i[4] 877.188 
5 *649:wbs_adr_i[4] *569:16 0.169643 
*END

*D_NET *570 0.165271
*CONN
*P wbs_adr_i[5] I
*I *649:wbs_adr_i[5] I *D vco_adc_wrapper
*CAP
1 wbs_adr_i[5] 0.00073753
2 *649:wbs_adr_i[5] 0.042981
3 *570:16 8.30043e-06
4 *570:11 0.0429727
5 *570:9 0.00467243
6 *570:7 0.00540996
7 *649:wbs_adr_i[5] wbs_dat_o[24] 0
8 *649:wbs_adr_i[5] *592:7 0
9 *570:9 *571:9 0.030898
10 *570:9 *607:9 9.76435e-06
11 *570:9 *620:8 0.00122166
12 *570:9 *622:8 0.000893513
13 *570:9 *623:8 0.00143869
14 *570:9 *641:11 0.00459619
15 *569:9 *570:9 0.0294313
*RES
1 wbs_adr_i[5] *570:7 18.9821 
2 *570:7 *570:9 308.982 
3 *570:9 *570:11 4.5 
4 *570:11 *649:wbs_adr_i[5] 877.491 
5 *649:wbs_adr_i[5] *570:16 0.169643 
*END

*D_NET *571 0.169208
*CONN
*P wbs_adr_i[6] I
*I *649:wbs_adr_i[6] I *D vco_adc_wrapper
*CAP
1 wbs_adr_i[6] 0.000718607
2 *649:wbs_adr_i[6] 0.0430055
3 *571:16 8.30043e-06
4 *571:11 0.0429972
5 *571:9 0.00509264
6 *571:7 0.00581124
7 *649:wbs_adr_i[6] *594:7 4.70757e-05
8 *571:9 *610:18 0.00110158
9 *571:9 *620:8 0.00192032
10 *571:9 *623:8 0.00102761
11 *571:9 *625:8 0.00122174
12 *571:9 *637:8 0.0311997
13 *571:9 *641:11 0.0041587
14 *570:9 *571:9 0.030898
*RES
1 wbs_adr_i[6] *571:7 18.6786 
2 *571:7 *571:9 322.946 
3 *571:9 *571:11 4.5 
4 *571:11 *649:wbs_adr_i[6] 877.795 
5 *649:wbs_adr_i[6] *571:16 0.169643 
*END

*D_NET *572 0.138743
*CONN
*P wbs_adr_i[7] I
*I *649:wbs_adr_i[7] I *D vco_adc_wrapper
*CAP
1 wbs_adr_i[7] 0.00123837
2 *649:wbs_adr_i[7] 0.0425071
3 *572:16 8.30043e-06
4 *572:11 0.0424988
5 *572:9 0.00942065
6 *572:7 0.010659
7 *572:9 *587:11 0.000111084
8 *572:9 *601:9 0.00106198
9 *572:9 *602:9 4.44629e-05
10 *572:9 *605:9 0.00746762
11 *528:9 *572:9 0.00718593
12 *550:9 *572:9 0.000365799
13 *551:9 *572:9 0.00280811
14 *554:11 *572:9 0.000386351
15 *556:9 *572:9 0.012162
16 *563:7 *649:wbs_adr_i[7] 0
17 *565:11 *572:9 0.000816988
*RES
1 wbs_adr_i[7] *572:7 26.5714 
2 *572:7 *572:9 336.5 
3 *572:9 *572:11 4.5 
4 *572:11 *649:wbs_adr_i[7] 869.902 
5 *649:wbs_adr_i[7] *572:16 0.169643 
*END

*D_NET *573 0.161891
*CONN
*P wbs_adr_i[8] I
*I *649:wbs_adr_i[8] I *D vco_adc_wrapper
*CAP
1 wbs_adr_i[8] 0.00138599
2 *649:wbs_adr_i[8] 0.0423865
3 *573:16 8.30043e-06
4 *573:11 0.0423782
5 *573:9 0.00796535
6 *573:7 0.00935134
7 *573:9 *574:9 0.0374414
8 *573:9 *576:11 0.000430624
9 *528:19 *573:9 0
10 *543:11 *573:9 0.00463527
11 *549:9 *573:9 0.0151451
12 *554:11 *573:9 0.000762986
*RES
1 wbs_adr_i[8] *573:7 27.7582 
2 *573:7 *573:9 61.5199 
3 *573:9 *573:11 3.41 
4 *573:11 *649:wbs_adr_i[8] 867.625 
5 *649:wbs_adr_i[8] *573:16 0.169643 
*END

*D_NET *574 0.180725
*CONN
*P wbs_adr_i[9] I
*I *649:wbs_adr_i[9] I *D vco_adc_wrapper
*CAP
1 wbs_adr_i[9] 0.00126758
2 *649:wbs_adr_i[9] 0.043068
3 *574:16 8.30043e-06
4 *574:11 0.0430597
5 *574:9 0.00701367
6 *574:7 0.00828125
7 *649:wbs_adr_i[9] *599:13 0
8 *649:wb_clk_i *574:7 0.000426413
9 *528:19 *574:9 0
10 *544:9 *574:9 0.0389578
11 *549:9 *574:9 0.00120048
12 *573:9 *574:9 0.0374414
*RES
1 wbs_adr_i[9] *574:7 28.3654 
2 *574:7 *574:9 63.8981 
3 *574:9 *574:11 3.41 
4 *574:11 *649:wbs_adr_i[9] 867.018 
5 *649:wbs_adr_i[9] *574:16 0.169643 
*END

*D_NET *575 0.143463
*CONN
*P wbs_cyc_i I
*I *649:wbs_cyc_i I *D vco_adc_wrapper
*CAP
1 wbs_cyc_i 0.000791441
2 *649:wbs_cyc_i 0.0427409
3 *575:16 8.30043e-06
4 *575:11 0.0473845
5 *575:7 0.00544335
6 *649:wbs_cyc_i wbs_dat_o[10] 0
7 *575:11 *642:9 0.00315057
8 *575:11 *645:11 0.0217247
9 *540:11 *575:11 0.000248896
10 *542:10 *575:11 0.0218203
11 *545:7 *649:wbs_cyc_i 0
12 *568:9 *575:11 0.000150244
*RES
1 wbs_cyc_i *575:7 19.2582 
2 *575:7 *575:11 39.9948 
3 *575:11 *649:wbs_cyc_i 876.125 
4 *649:wbs_cyc_i *575:16 0.169643 
*END

*D_NET *576 0.144131
*CONN
*P wbs_dat_i[0] I
*I *649:wbs_dat_i[0] I *D vco_adc_wrapper
*CAP
1 wbs_dat_i[0] 0.00114349
2 *649:wbs_dat_i[0] 0.0422699
3 *576:16 8.30043e-06
4 *576:11 0.0465131
5 *576:7 0.00539505
6 *649:wbs_dat_i[0] *580:7 0.000345223
7 *528:19 *649:wbs_dat_i[0] 0
8 *542:10 *576:11 0
9 *543:11 *576:11 0.0243516
10 *554:11 *576:11 0.0236738
11 *573:9 *576:11 0.000430624
*RES
1 wbs_dat_i[0] *576:7 25.9368 
2 *576:7 *576:11 43.2378 
3 *576:11 *649:wbs_dat_i[0] 869.446 
4 *649:wbs_dat_i[0] *576:16 0.169643 
*END

*D_NET *577 0.16418
*CONN
*P wbs_dat_i[10] I
*I *649:wbs_dat_i[10] I *D vco_adc_wrapper
*CAP
1 wbs_dat_i[10] 0.00162902
2 *649:wbs_dat_i[10] 0.0420917
3 *577:16 8.30043e-06
4 *577:11 0.0420834
5 *577:9 0.0127026
6 *577:7 0.0143316
7 *577:9 *578:9 0.0402521
8 *528:19 *577:9 0.00542841
9 *542:4 *577:7 0
10 *544:9 *577:9 0.000336355
11 *545:9 *577:9 0.00531619
*RES
1 wbs_dat_i[10] *577:7 32.0082 
2 *577:7 *577:9 67.1411 
3 *577:9 *577:11 3.41 
4 *577:11 *649:wbs_dat_i[10] 863.375 
5 *649:wbs_dat_i[10] *577:16 0.169643 
*END

*D_NET *578 0.19551
*CONN
*P wbs_dat_i[11] I
*I *649:wbs_dat_i[11] I *D vco_adc_wrapper
*CAP
1 wbs_dat_i[11] 0.00156644
2 *649:wbs_dat_i[11] 0.0421128
3 *578:16 8.30043e-06
4 *578:11 0.0421045
5 *578:9 0.00943907
6 *578:7 0.0110055
7 *578:9 *579:9 0.0418078
8 *578:9 *581:9 0.00674716
9 *544:9 *578:9 0.000466034
10 *545:9 *578:9 0
11 *577:9 *578:9 0.0402521
*RES
1 wbs_dat_i[11] *578:7 31.4011 
2 *578:7 *578:9 69.5193 
3 *578:9 *578:11 3.41 
4 *578:11 *649:wbs_dat_i[11] 863.982 
5 *649:wbs_dat_i[11] *578:16 0.169643 
*END

*D_NET *579 0.208008
*CONN
*P wbs_dat_i[12] I
*I *649:wbs_dat_i[12] I *D vco_adc_wrapper
*CAP
1 wbs_dat_i[12] 0.00153834
2 *649:wbs_dat_i[12] 0.0421377
3 *579:16 8.30043e-06
4 *579:11 0.0421294
5 *579:9 0.00999972
6 *579:7 0.0115381
7 *579:7 *649:wbs_we_i 0
8 *579:9 *580:9 0.0433209
9 *579:9 *582:9 0.00801079
10 *579:9 *583:9 0.00686971
11 *579:9 *588:9 0
12 *544:9 *579:9 0.000647598
13 *578:9 *579:9 0.0418078
*RES
1 wbs_dat_i[12] *579:7 30.7939 
2 *579:7 *579:9 71.9695 
3 *579:9 *579:11 3.41 
4 *579:11 *649:wbs_dat_i[12] 864.589 
5 *649:wbs_dat_i[12] *579:16 0.169643 
*END

*D_NET *580 0.201121
*CONN
*P wbs_dat_i[13] I
*I *649:wbs_dat_i[13] I *D vco_adc_wrapper
*CAP
1 wbs_dat_i[13] 0.00142259
2 *649:wbs_dat_i[13] 0.0421717
3 *580:16 8.30043e-06
4 *580:11 0.0421634
5 *580:9 0.0106562
6 *580:7 0.0120788
7 *580:9 *584:9 0.0109271
8 *580:9 *588:9 0
9 *580:9 *594:17 0.00268584
10 *649:wbs_dat_i[0] *580:7 0.000345223
11 *528:19 *580:7 0
12 *544:9 *580:9 0.016635
13 *563:9 *580:9 0.000815337
14 *564:9 *580:9 0.000314987
15 *566:9 *580:9 0.0175757
16 *579:9 *580:9 0.0433209
*RES
1 wbs_dat_i[13] *580:7 30.1868 
2 *580:7 *580:9 74.3477 
3 *580:9 *580:11 3.41 
4 *580:11 *649:wbs_dat_i[13] 865.196 
5 *649:wbs_dat_i[13] *580:16 0.169643 
*END

*D_NET *581 0.170334
*CONN
*P wbs_dat_i[14] I
*I *649:wbs_dat_i[14] I *D vco_adc_wrapper
*CAP
1 wbs_dat_i[14] 0.00160655
2 *649:wbs_dat_i[14] 0.0434765
3 *581:16 8.30043e-06
4 *581:11 0.0434682
5 *581:9 0.0144747
6 *581:7 0.0160812
7 *581:7 *649:wbs_sel_i[0] 0
8 *581:9 *582:9 0.0444717
9 *578:9 *581:9 0.00674716
*RES
1 wbs_dat_i[14] *581:7 32.6429 
2 *581:7 *581:9 437.125 
3 *581:9 *581:11 4.5 
4 *581:11 *649:wbs_dat_i[14] 863.83 
5 *649:wbs_dat_i[14] *581:16 0.169643 
*END

*D_NET *582 0.199905
*CONN
*P wbs_dat_i[15] I
*I *649:wbs_dat_i[15] I *D vco_adc_wrapper
*CAP
1 wbs_dat_i[15] 0.00158893
2 *649:wbs_dat_i[15] 0.0420789
3 *582:16 8.30043e-06
4 *582:11 0.0420706
5 *582:9 0.0069248
6 *582:7 0.00851373
7 *582:9 *583:9 0.0459053
8 *649:wbs_adr_i[1] *582:7 0
9 *566:9 *582:9 0.000331791
10 *579:9 *582:9 0.00801079
11 *581:9 *582:9 0.0444717
*RES
1 wbs_dat_i[15] *582:7 32.3393 
2 *582:7 *582:9 451.089 
3 *582:9 *582:11 4.5 
4 *582:11 *649:wbs_dat_i[15] 864.134 
5 *649:wbs_dat_i[15] *582:16 0.169643 
*END

*D_NET *583 0.202365
*CONN
*P wbs_dat_i[16] I
*I *649:wbs_dat_i[16] I *D vco_adc_wrapper
*CAP
1 wbs_dat_i[16] 0.0015703
2 *649:wbs_dat_i[16] 0.0420856
3 *583:16 8.30043e-06
4 *583:11 0.0420773
5 *583:9 0.00708209
6 *583:7 0.0086524
7 *583:9 *584:9 0.0473844
8 *566:9 *583:9 0.000729696
9 *579:9 *583:9 0.00686971
10 *582:9 *583:9 0.0459053
*RES
1 wbs_dat_i[16] *583:7 32.0357 
2 *583:7 *583:9 464.643 
3 *583:9 *583:11 4.5 
4 *583:11 *649:wbs_dat_i[16] 864.438 
5 *649:wbs_dat_i[16] *583:16 0.169643 
*END

*D_NET *584 0.197269
*CONN
*P wbs_dat_i[17] I
*I *649:wbs_dat_i[17] I *D vco_adc_wrapper
*CAP
1 wbs_dat_i[17] 0.00158524
2 *649:wbs_dat_i[17] 0.0421001
3 *584:16 8.30043e-06
4 *584:11 0.0420918
5 *584:9 0.0103959
6 *584:7 0.0119811
7 *584:9 *594:17 0.0251896
8 *563:9 *584:9 0.00410065
9 *566:9 *584:9 0.00150498
10 *580:9 *584:9 0.0109271
11 *583:9 *584:9 0.0473844
*RES
1 wbs_dat_i[17] *584:7 31.7321 
2 *584:7 *584:9 478.607 
3 *584:9 *584:11 4.5 
4 *584:11 *649:wbs_dat_i[17] 864.741 
5 *649:wbs_dat_i[17] *584:16 0.169643 
*END

*D_NET *585 0.224726
*CONN
*P wbs_dat_i[18] I
*I *649:wbs_dat_i[18] I *D vco_adc_wrapper
*CAP
1 wbs_dat_i[18] 0.00172279
2 *649:wbs_dat_i[18] 0.0417462
3 *585:16 8.30043e-06
4 *585:11 0.0417379
5 *585:9 0.0117934
6 *585:7 0.0135161
7 *585:7 *649:wbs_dat_i[2] 0.000517233
8 *585:9 *586:9 0.0535062
9 *585:9 *589:9 0.0104394
10 *585:9 *590:9 0.00942346
11 *585:9 *612:8 0.03976
12 *545:9 *585:9 0.000555333
*RES
1 wbs_dat_i[18] *585:7 36.8654 
2 *585:7 *585:9 86.3829 
3 *585:9 *585:11 3.41 
4 *585:11 *649:wbs_dat_i[18] 858.518 
5 *649:wbs_dat_i[18] *585:16 0.169643 
*END

*D_NET *586 0.236474
*CONN
*P wbs_dat_i[19] I
*I *649:wbs_dat_i[19] I *D vco_adc_wrapper
*CAP
1 wbs_dat_i[19] 0.00188701
2 *649:wbs_dat_i[19] 0.0417888
3 *586:16 8.30043e-06
4 *586:11 0.0417805
5 *586:9 0.00974662
6 *586:7 0.0116336
7 *586:7 *649:wbs_sel_i[2] 0
8 *586:9 *588:9 0.0550176
9 *586:9 *589:9 0.000185098
10 *586:9 *590:9 0.000212929
11 *586:9 *591:9 0.0106325
12 *586:9 *592:9 0.00915963
13 *545:9 *586:9 0.000914752
14 *585:9 *586:9 0.0535062
*RES
1 wbs_dat_i[19] *586:7 36.2582 
2 *586:7 *586:9 88.8331 
3 *586:9 *586:11 3.41 
4 *586:11 *649:wbs_dat_i[19] 859.125 
5 *649:wbs_dat_i[19] *586:16 0.169643 
*END

*D_NET *587 0.149018
*CONN
*P wbs_dat_i[1] I
*I *649:wbs_dat_i[1] I *D vco_adc_wrapper
*CAP
1 wbs_dat_i[1] 0.00111794
2 *649:wbs_dat_i[1] 0.0424501
3 *587:16 8.30043e-06
4 *587:11 0.0470628
5 *587:7 0.00573902
6 *649:wbs_dat_i[1] wbs_dat_o[15] 0
7 *542:10 *587:11 0
8 *549:9 *587:11 0.000423064
9 *550:7 *649:wbs_dat_i[1] 0
10 *554:11 *587:11 0.0263754
11 *565:11 *587:11 0.0257301
12 *572:9 *587:11 0.000111084
*RES
1 wbs_dat_i[1] *587:7 24.7225 
2 *587:7 *587:11 46.4087 
3 *587:11 *649:wbs_dat_i[1] 870.661 
4 *649:wbs_dat_i[1] *587:16 0.169643 
*END

*D_NET *588 0.233506
*CONN
*P wbs_dat_i[20] I
*I *649:wbs_dat_i[20] I *D vco_adc_wrapper
*CAP
1 wbs_dat_i[20] 0.00185046
2 *649:wbs_dat_i[20] 0.0432289
3 *588:16 8.30043e-06
4 *588:11 0.0432206
5 *588:9 0.0164417
6 *588:7 0.0182922
7 *588:9 *593:9 0.0108053
8 *588:9 *595:9 0.0178671
9 *649:wbs_adr_i[3] *588:7 0
10 *545:9 *588:9 0.0267738
11 *566:9 *588:9 0
12 *579:9 *588:9 0
13 *580:9 *588:9 0
14 *586:9 *588:9 0.0550176
*RES
1 wbs_dat_i[20] *588:7 35.6511 
2 *588:7 *588:9 91.2113 
3 *588:9 *588:11 3.41 
4 *588:11 *649:wbs_dat_i[20] 859.732 
5 *649:wbs_dat_i[20] *588:16 0.169643 
*END

*D_NET *589 0.18885
*CONN
*P wbs_dat_i[21] I
*I *649:wbs_dat_i[21] I *D vco_adc_wrapper
*CAP
1 wbs_dat_i[21] 0.00176471
2 *649:wbs_dat_i[21] 0.0417009
3 *589:16 8.30043e-06
4 *589:11 0.0416926
5 *589:9 0.0179283
6 *589:7 0.019693
7 *589:7 *633:4 0.000450705
8 *589:9 *590:9 0.0549872
9 *585:9 *589:9 0.0104394
10 *586:9 *589:9 0.000185098
*RES
1 wbs_dat_i[21] *589:7 38.4107 
2 *589:7 *589:9 533.643 
3 *589:9 *589:11 4.5 
4 *589:11 *649:wbs_dat_i[21] 858.062 
5 *649:wbs_dat_i[21] *589:16 0.169643 
*END

*D_NET *590 0.224244
*CONN
*P wbs_dat_i[22] I
*I *649:wbs_dat_i[22] I *D vco_adc_wrapper
*CAP
1 wbs_dat_i[22] 0.00194756
2 *649:wbs_dat_i[22] 0.0417073
3 *590:16 8.30043e-06
4 *590:11 0.041699
5 *590:9 0.00793591
6 *590:7 0.00988346
7 *590:9 *591:9 0.0564385
8 *585:9 *590:9 0.00942346
9 *586:9 *590:9 0.000212929
10 *589:9 *590:9 0.0549872
*RES
1 wbs_dat_i[22] *590:7 38.1071 
2 *590:7 *590:9 547.196 
3 *590:9 *590:11 4.5 
4 *590:11 *649:wbs_dat_i[22] 858.366 
5 *649:wbs_dat_i[22] *590:16 0.169643 
*END

*D_NET *591 0.228491
*CONN
*P wbs_dat_i[23] I
*I *649:wbs_dat_i[23] I *D vco_adc_wrapper
*CAP
1 wbs_dat_i[23] 0.00179613
2 *649:wbs_dat_i[23] 0.0417221
3 *591:16 8.30043e-06
4 *591:11 0.0417138
5 *591:9 0.00808275
6 *591:7 0.00987888
7 *591:7 *649:wbs_dat_i[4] 0.000296332
8 *591:9 *592:9 0.0579218
9 *586:9 *591:9 0.0106325
10 *590:9 *591:9 0.0564385
*RES
1 wbs_dat_i[23] *591:7 37.8036 
2 *591:7 *591:9 560.75 
3 *591:9 *591:11 4.5 
4 *591:11 *649:wbs_dat_i[23] 858.67 
5 *649:wbs_dat_i[23] *591:16 0.169643 
*END

*D_NET *592 0.230317
*CONN
*P wbs_dat_i[24] I
*I *649:wbs_dat_i[24] I *D vco_adc_wrapper
*CAP
1 wbs_dat_i[24] 0.00192197
2 *649:wbs_dat_i[24] 0.041737
3 *592:16 8.30043e-06
4 *592:11 0.0417287
5 *592:9 0.0082745
6 *592:7 0.0101965
7 *592:9 *593:9 0.0593689
8 *649:wbs_adr_i[5] *592:7 0
9 *586:9 *592:9 0.00915963
10 *591:9 *592:9 0.0579218
*RES
1 wbs_dat_i[24] *592:7 37.5 
2 *592:7 *592:9 574.714 
3 *592:9 *592:11 4.5 
4 *592:11 *649:wbs_dat_i[24] 858.973 
5 *649:wbs_dat_i[24] *592:16 0.169643 
*END

*D_NET *593 0.234095
*CONN
*P wbs_dat_i[25] I
*I *649:wbs_dat_i[25] I *D vco_adc_wrapper
*CAP
1 wbs_dat_i[25] 0.00189711
2 *649:wbs_dat_i[25] 0.041744
3 *593:16 8.30043e-06
4 *593:11 0.0417357
5 *593:9 0.00874206
6 *593:7 0.0106392
7 *593:7 *649:wbs_dat_i[5] 0
8 *593:7 *604:13 0
9 *593:9 *595:9 0.0591548
10 *588:9 *593:9 0.0108053
11 *592:9 *593:9 0.0593689
*RES
1 wbs_dat_i[25] *593:7 37.1964 
2 *593:7 *593:9 588.268 
3 *593:9 *593:11 4.5 
4 *593:11 *649:wbs_dat_i[25] 859.277 
5 *649:wbs_dat_i[25] *593:16 0.169643 
*END

*D_NET *594 0.220992
*CONN
*P wbs_dat_i[26] I
*I *649:wbs_dat_i[26] I *D vco_adc_wrapper
*CAP
1 wbs_dat_i[26] 0.000832446
2 *649:wbs_dat_i[26] 0.04345
3 *594:24 8.30043e-06
4 *594:19 0.0434417
5 *594:17 0.0115537
6 *594:15 0.0122796
7 *594:9 0.0036911
8 *594:7 0.00379762
9 *594:9 *599:11 0.000614315
10 *594:9 *607:9 0.010312
11 *594:9 *617:8 0.00217445
12 *594:15 *649:wbs_dat_i[9] 0
13 *649:wbs_adr_i[6] *594:7 4.70757e-05
14 *563:9 *594:17 0.053313
15 *566:9 *594:17 0.00760097
16 *580:9 *594:17 0.00268584
17 *584:9 *594:17 0.0251896
*RES
1 wbs_dat_i[26] *594:7 20.1964 
2 *594:7 *594:9 97.875 
3 *594:9 *594:15 20.3571 
4 *594:15 *594:17 504.482 
5 *594:17 *594:19 4.5 
6 *594:19 *649:wbs_dat_i[26] 865.045 
7 *649:wbs_dat_i[26] *594:24 0.169643 
*END

*D_NET *595 0.207084
*CONN
*P wbs_dat_i[27] I
*I *649:wbs_dat_i[27] I *D vco_adc_wrapper
*CAP
1 wbs_dat_i[27] 0.00187458
2 *649:wbs_dat_i[27] 0.0417524
3 *595:16 8.30043e-06
4 *595:11 0.0417441
5 *595:9 0.0214042
6 *595:7 0.0232788
7 *588:9 *595:9 0.0178671
8 *593:9 *595:9 0.0591548
*RES
1 wbs_dat_i[27] *595:7 36.8929 
2 *595:7 *595:9 615.786 
3 *595:9 *595:11 4.5 
4 *595:11 *649:wbs_dat_i[27] 859.58 
5 *649:wbs_dat_i[27] *595:16 0.169643 
*END

*D_NET *596 0.247138
*CONN
*P wbs_dat_i[28] I
*I *649:wbs_dat_i[28] I *D vco_adc_wrapper
*CAP
1 wbs_dat_i[28] 0.000724718
2 *649:wbs_dat_i[28] 0.0441026
3 *596:16 8.30043e-06
4 *596:11 0.0440943
5 *596:9 0.00954372
6 *596:7 0.0102684
7 *596:9 *625:8 0.0582546
8 *596:9 *627:8 0.0138345
9 *596:9 *629:8 0.0643493
10 *596:9 *637:8 0.0019574
*RES
1 wbs_dat_i[28] *596:7 18.6786 
2 *596:7 *596:9 629.75 
3 *596:9 *596:11 4.5 
4 *596:11 *649:wbs_dat_i[28] 877.795 
5 *649:wbs_dat_i[28] *596:16 0.169643 
*END

*D_NET *597 0.250715
*CONN
*P wbs_dat_i[29] I
*I *649:wbs_dat_i[29] I *D vco_adc_wrapper
*CAP
1 wbs_dat_i[29] 0.0432739
2 *649:wbs_dat_i[29] 0.000455738
3 *597:16 8.30043e-06
4 *597:9 0.00917136
5 *597:7 0.00872392
6 *597:5 0.0432739
7 *597:5 *637:4 0
8 *597:9 *599:17 0.0639219
9 *597:9 *606:9 0.00120264
10 *597:9 *609:8 0.0021711
11 *597:9 *610:10 0.000430317
12 *597:9 *624:8 0.0102433
13 *597:9 *628:8 0.00213857
14 *597:9 *631:8 0.0657
*RES
1 wbs_dat_i[29] *597:5 883 
2 *597:5 *597:7 4.5 
3 *597:7 *597:9 643.304 
4 *597:9 *649:wbs_dat_i[29] 13.4732 
5 *649:wbs_dat_i[29] *597:16 0.169643 
*END

*D_NET *598 0.163378
*CONN
*P wbs_dat_i[2] I
*I *649:wbs_dat_i[2] I *D vco_adc_wrapper
*CAP
1 wbs_dat_i[2] 0.00104268
2 *649:wbs_dat_i[2] 0.0423866
3 *598:16 8.30043e-06
4 *598:11 0.0487752
5 *598:7 0.00743955
6 *598:11 *601:9 0.00161088
7 *598:11 *602:9 0.00504344
8 *598:11 *603:9 0.00518598
9 *598:11 *604:9 0.00342052
10 *542:10 *598:11 0
11 *548:9 *598:11 0.00766001
12 *551:9 *598:11 0.000236939
13 *552:9 *598:11 0.000309381
14 *565:11 *598:11 0.0284072
15 *568:9 *598:11 0.0113343
16 *585:7 *649:wbs_dat_i[2] 0.000517233
*RES
1 wbs_dat_i[2] *598:7 23.5082 
2 *598:7 *598:11 49.6517 
3 *598:11 *649:wbs_dat_i[2] 871.875 
4 *649:wbs_dat_i[2] *598:16 0.169643 
*END

*D_NET *599 0.216519
*CONN
*P wbs_dat_i[30] I
*I *649:wbs_dat_i[30] I *D vco_adc_wrapper
*CAP
1 wbs_dat_i[30] 0.00185947
2 *649:wbs_dat_i[30] 0.000434668
3 *599:24 8.30043e-06
4 *599:17 0.0199406
5 *599:15 0.0195143
6 *599:13 0.0438041
7 *599:11 0.0456636
8 *599:11 *613:8 0.000497864
9 *599:17 *609:8 0.0056497
10 *599:17 *624:8 0.0110455
11 *599:17 *626:8 0
12 *599:17 *628:8 0.00185905
13 *599:17 *631:8 0.00170577
14 *649:wbs_adr_i[9] *599:13 0
15 *562:9 *599:11 0
16 *594:9 *599:11 0.000614315
17 *597:9 *599:17 0.0639219
*RES
1 wbs_dat_i[30] *599:11 48.2143 
2 *599:11 *599:13 866.518 
3 *599:13 *599:15 4.5 
4 *599:15 *599:17 635.089 
5 *599:17 *649:wbs_dat_i[30] 13.1696 
6 *649:wbs_dat_i[30] *599:24 0.169643 
*END

*D_NET *600 0.265426
*CONN
*P wbs_dat_i[31] I
*I *649:wbs_dat_i[31] I *D vco_adc_wrapper
*CAP
1 wbs_dat_i[31] 0.0274909
2 *649:wbs_dat_i[31] 0.000477934
3 *600:16 8.30043e-06
4 *600:9 0.0224195
5 *600:7 0.0219499
6 *600:5 0.0274909
7 *600:5 *638:4 0.0708791
8 *600:9 *628:8 0.025971
9 *600:9 *631:8 0.0687384
*RES
1 wbs_dat_i[31] *600:5 882.393 
2 *600:5 *600:7 4.5 
3 *600:7 *600:9 670.821 
4 *600:9 *649:wbs_dat_i[31] 14.0804 
5 *649:wbs_dat_i[31] *600:16 0.169643 
*END

*D_NET *601 0.152568
*CONN
*P wbs_dat_i[3] I
*I *649:wbs_dat_i[3] I *D vco_adc_wrapper
*CAP
1 wbs_dat_i[3] 0.00110828
2 *649:wbs_dat_i[3] 0.0425405
3 *601:16 8.30043e-06
4 *601:11 0.0425322
5 *601:9 0.00571302
6 *601:7 0.0068213
7 *601:9 *602:9 0.0276178
8 *601:9 *605:9 0.0193772
9 *552:9 *601:9 0.000311475
10 *553:9 *601:9 0.000441237
11 *565:11 *601:9 0.00342385
12 *572:9 *601:9 0.00106198
13 *598:11 *601:9 0.00161088
*RES
1 wbs_dat_i[3] *601:7 25.3571 
2 *601:7 *601:9 281.464 
3 *601:9 *601:11 4.5 
4 *601:11 *649:wbs_dat_i[3] 871.116 
5 *649:wbs_dat_i[3] *601:16 0.169643 
*END

*D_NET *602 0.161378
*CONN
*P wbs_dat_i[4] I
*I *649:wbs_dat_i[4] I *D vco_adc_wrapper
*CAP
1 wbs_dat_i[4] 0.00110136
2 *649:wbs_dat_i[4] 0.0424566
3 *602:16 8.30043e-06
4 *602:11 0.0424483
5 *602:9 0.00467694
6 *602:7 0.0057783
7 *602:9 *603:9 0.000923872
8 *602:9 *604:9 0.0284263
9 *548:9 *602:9 0.000193147
10 *553:9 *602:9 0.000227799
11 *555:9 *602:9 0.00076869
12 *556:9 *602:9 0.000466961
13 *557:9 *602:9 0.000653602
14 *558:9 *602:9 0.000245832
15 *572:9 *602:9 4.44629e-05
16 *591:7 *649:wbs_dat_i[4] 0.000296332
17 *598:11 *602:9 0.00504344
18 *601:9 *602:9 0.0276178
*RES
1 wbs_dat_i[4] *602:7 25.0536 
2 *602:7 *602:9 299.946 
3 *602:9 *602:11 4.5 
4 *602:11 *649:wbs_dat_i[4] 871.42 
5 *649:wbs_dat_i[4] *602:16 0.169643 
*END

*D_NET *603 0.153286
*CONN
*P wbs_dat_i[5] I
*I *649:wbs_dat_i[5] I *D vco_adc_wrapper
*CAP
1 wbs_dat_i[5] 0.00106963
2 *649:wbs_dat_i[5] 0.0426574
3 *603:16 8.30043e-06
4 *603:11 0.0426491
5 *603:9 0.0106411
6 *603:7 0.0117108
7 *603:9 *604:9 0.0315549
8 *548:9 *603:9 0.00688544
9 *593:7 *649:wbs_dat_i[5] 0
10 *598:11 *603:9 0.00518598
11 *602:9 *603:9 0.000923872
*RES
1 wbs_dat_i[5] *603:7 24.4464 
2 *603:7 *603:9 313.5 
3 *603:9 *603:11 4.5 
4 *603:11 *649:wbs_dat_i[5] 872.027 
5 *649:wbs_dat_i[5] *603:16 0.169643 
*END

*D_NET *604 0.168672
*CONN
*P wbs_dat_i[6] I
*I *649:wbs_dat_i[6] I *D vco_adc_wrapper
*CAP
1 wbs_dat_i[6] 0.00110676
2 *649:wbs_dat_i[6] 0.000903532
3 *604:24 8.30043e-06
4 *604:13 0.043051
5 *604:11 0.0421558
6 *604:9 0.00438438
7 *604:7 0.00549114
8 *649:wbs_dat_i[6] *605:17 0.00252488
9 *649:wbs_dat_i[6] *609:8 0.00137354
10 *649:wbs_dat_i[6] *624:8 0.000329806
11 *604:13 *635:4 0
12 *548:9 *604:9 0.000222187
13 *553:9 *604:9 0.000245641
14 *555:9 *604:9 0.00124381
15 *558:9 *604:9 0.000463756
16 *559:9 *604:9 0.00092932
17 *560:9 *604:9 0.000836053
18 *593:7 *604:13 0
19 *598:11 *604:9 0.00342052
20 *602:9 *604:9 0.0284263
21 *603:9 *604:9 0.0315549
*RES
1 wbs_dat_i[6] *604:7 24.75 
2 *604:7 *604:9 303.643 
3 *604:9 *604:11 4.5 
4 *604:11 *604:13 862.875 
5 *604:13 *649:wbs_dat_i[6] 41.9196 
6 *649:wbs_dat_i[6] *604:24 0.169643 
*END

*D_NET *605 0.158092
*CONN
*P wbs_dat_i[7] I
*I *649:wbs_dat_i[7] I *D vco_adc_wrapper
*CAP
1 wbs_dat_i[7] 0.00120272
2 *649:wbs_dat_i[7] 0.000523902
3 *605:24 8.30043e-06
4 *605:17 0.00336274
5 *605:15 0.00284714
6 *605:13 0.0420061
7 *605:11 0.0420061
8 *605:9 0.00341781
9 *605:7 0.00462054
10 *605:17 *606:9 0.0166922
11 *605:17 *609:8 0.0052169
12 *605:17 *624:8 0.000359738
13 *605:17 *636:8 0.00297727
14 *649:wbs_dat_i[6] *605:17 0.00252488
15 *552:9 *605:9 0.000188464
16 *565:11 *605:9 0.00329214
17 *572:9 *605:9 0.00746762
18 *601:9 *605:9 0.0193772
*RES
1 wbs_dat_i[7] *605:7 25.6607 
2 *605:7 *605:9 182.893 
3 *605:9 *605:11 4.5 
4 *605:11 *605:13 861.661 
5 *605:13 *605:15 4.5 
6 *605:15 *605:17 158.25 
7 *605:17 *649:wbs_dat_i[7] 13.7768 
8 *649:wbs_dat_i[7] *605:24 0.169643 
*END

*D_NET *606 0.152835
*CONN
*P wbs_dat_i[8] I
*I *649:wbs_dat_i[8] I *D vco_adc_wrapper
*CAP
1 wbs_dat_i[8] 0.0444813
2 *649:wbs_dat_i[8] 0.000554316
3 *606:16 8.30043e-06
4 *606:9 0.0137265
5 *606:7 0.0131804
6 *606:5 0.0444813
7 *649:wbs_dat_i[8] wbs_dat_o[30] 6.4974e-06
8 *606:9 *609:8 0.00384198
9 *606:9 *624:8 0.000772247
10 *606:9 *628:8 0.00120945
11 *606:9 *631:8 0.000140088
12 *606:9 *636:8 0.00888624
13 *606:9 *639:8 0.000161297
14 *606:9 *643:9 0.00349023
15 *597:9 *606:9 0.00120264
16 *605:17 *606:9 0.0166922
*RES
1 wbs_dat_i[8] *606:5 882.393 
2 *606:5 *606:7 4.5 
3 *606:7 *606:9 354.982 
4 *606:9 *649:wbs_dat_i[8] 14.0804 
5 *649:wbs_dat_i[8] *606:16 0.169643 
*END

*D_NET *607 0.18032
*CONN
*P wbs_dat_i[9] I
*I *649:wbs_dat_i[9] I *D vco_adc_wrapper
*CAP
1 wbs_dat_i[9] 0.000842669
2 *649:wbs_dat_i[9] 0.042967
3 *607:16 8.30043e-06
4 *607:11 0.0429587
5 *607:9 0.0054316
6 *607:7 0.00627427
7 *607:9 *615:8 0.000701066
8 *607:9 *617:8 0.00412069
9 *607:9 *622:8 0.0165875
10 *607:9 *633:8 0.0201228
11 *607:9 *635:8 0.0273883
12 *607:9 *640:11 0.000675781
13 *607:9 *645:11 0.00079151
14 *649:wb_rst_i *607:7 0
15 *569:9 *607:9 0.00112813
16 *570:9 *607:9 9.76435e-06
17 *594:9 *607:9 0.010312
18 *594:15 *649:wbs_dat_i[9] 0
*RES
1 wbs_dat_i[9] *607:7 19.8929 
2 *607:7 *607:9 368.536 
3 *607:9 *607:11 4.5 
4 *607:11 *649:wbs_dat_i[9] 876.58 
5 *649:wbs_dat_i[9] *607:16 0.169643 
*END

*D_NET *608 0.142732
*CONN
*P wbs_dat_o[0] O
*I *649:wbs_dat_o[0] O *D vco_adc_wrapper
*CAP
1 wbs_dat_o[0] 0.0429821
2 *649:wbs_dat_o[0] 0.000370552
3 *608:19 8.30043e-06
4 *608:10 0.0488342
5 *608:6 0.00621434
6 *608:10 *619:10 0.023144
7 *608:10 *644:11 0.021179
*RES
1 *649:wbs_dat_o[0] *608:6 10.7136 
2 *608:6 *608:10 44.0305 
3 *608:10 wbs_dat_o[0] 884.67 
4 *649:wbs_dat_o[0] *608:19 0.169643 
*END

*D_NET *609 0.166627
*CONN
*P wbs_dat_o[10] O
*I *649:wbs_dat_o[10] O *D vco_adc_wrapper
*CAP
1 wbs_dat_o[10] 0.0431389
2 *649:wbs_dat_o[10] 0.000455128
3 *609:19 8.30043e-06
4 *609:10 0.0431389
5 *609:8 0.0076127
6 *609:6 0.00805952
7 *609:8 *618:8 0.000650321
8 *609:8 *621:8 0.00458752
9 *609:8 *626:8 0
10 *609:8 *630:8 0.00278936
11 *609:8 *634:8 0.000212929
12 *609:8 *639:8 0.0377205
13 *649:wbs_cyc_i wbs_dat_o[10] 0
14 *649:wbs_dat_i[6] *609:8 0.00137354
15 *597:9 *609:8 0.0021711
16 *599:17 *609:8 0.0056497
17 *605:17 *609:8 0.0052169
18 *606:9 *609:8 0.00384198
*RES
1 *649:wbs_dat_o[10] *609:6 12.8661 
2 *609:6 *609:8 387.018 
3 *609:8 *609:10 4.5 
4 *609:10 wbs_dat_o[10] 883.607 
5 *649:wbs_dat_o[10] *609:19 0.169643 
*END

*D_NET *610 0.186106
*CONN
*P wbs_dat_o[11] O
*I *649:wbs_dat_o[11] O *D vco_adc_wrapper
*CAP
1 wbs_dat_o[11] 0.00066706
2 *649:wbs_dat_o[11] 0.00725437
3 *610:27 8.30043e-06
4 *610:18 0.00738864
5 *610:12 0.0491218
6 *610:10 0.0496463
7 *610:10 *624:8 0.000931161
8 *610:10 *628:8 0.0144958
9 *610:10 *636:8 0.00101432
10 *610:18 *611:8 0.0250652
11 *610:18 *615:8 0.000614126
12 *610:18 *617:8 0.00111566
13 *610:18 *620:8 0.00585349
14 *610:18 *637:8 0.0108682
15 *610:18 *638:8 0.000894432
16 *610:18 *641:11 0.00938086
17 *562:7 *610:12 0.000254158
18 *571:9 *610:18 0.00110158
19 *597:9 *610:10 0.000430317
*RES
1 *649:wbs_dat_o[11] *610:10 44.7358 
2 *610:10 *610:12 868.339 
3 *610:12 *610:18 49.6025 
4 *610:18 wbs_dat_o[11] 13.4196 
5 *649:wbs_dat_o[11] *610:27 0.169643 
*END

*D_NET *611 0.187622
*CONN
*P wbs_dat_o[12] O
*I *649:wbs_dat_o[12] O *D vco_adc_wrapper
*CAP
1 wbs_dat_o[12] 0.000638227
2 *649:wbs_dat_o[12] 0.0444995
3 *611:19 8.30043e-06
4 *611:8 0.0122671
5 *611:6 0.0116289
6 *611:4 0.0444912
7 *611:8 *620:8 0.000330714
8 *611:8 *627:8 0.00363426
9 *611:8 *632:8 0.0125315
10 *611:8 *638:8 0.0325273
11 *610:18 *611:8 0.0250652
*RES
1 *649:wbs_dat_o[12] *611:4 879.161 
2 *611:4 *611:6 3.41 
3 *611:6 *611:8 72.7623 
4 *611:8 wbs_dat_o[12] 16.2225 
5 *649:wbs_dat_o[12] *611:19 0.169643 
*END

*D_NET *612 0.191649
*CONN
*P wbs_dat_o[13] O
*I *649:wbs_dat_o[13] O *D vco_adc_wrapper
*CAP
1 wbs_dat_o[13] 0.00194155
2 *649:wbs_dat_o[13] 0.0417207
3 *612:19 8.30043e-06
4 *612:8 0.0103563
5 *612:6 0.00841471
6 *612:4 0.0417124
7 *528:19 wbs_dat_o[13] 0
8 *545:9 *612:8 0.00183324
9 *547:9 *612:8 0.0459023
10 *585:9 *612:8 0.03976
*RES
1 *649:wbs_dat_o[13] *612:4 857.911 
2 *612:4 *612:6 3.41 
3 *612:6 *612:8 75.1405 
4 *612:8 wbs_dat_o[13] 37.4725 
5 *649:wbs_dat_o[13] *612:19 0.169643 
*END

*D_NET *613 0.173658
*CONN
*P wbs_dat_o[14] O
*I *649:wbs_dat_o[14] O *D vco_adc_wrapper
*CAP
1 wbs_dat_o[14] 0.000910639
2 *649:wbs_dat_o[14] 0.042785
3 *613:19 8.30043e-06
4 *613:8 0.0163951
5 *613:6 0.0154844
6 *613:4 0.0427767
7 wbs_dat_o[14] *649:wbs_sel_i[0] 0
8 *613:8 *615:8 0.0450884
9 *613:8 *635:8 0.000666502
10 *613:8 *641:11 0.000797799
11 *613:8 *642:9 0.000733343
12 *548:9 *613:8 0.00537597
13 *555:9 *613:8 0
14 *568:9 *613:8 0.00213813
15 *599:11 *613:8 0.000497864
*RES
1 *649:wbs_dat_o[14] *613:4 875.518 
2 *613:4 *613:6 3.41 
3 *613:6 *613:8 77.5907 
4 *613:8 wbs_dat_o[14] 19.8654 
5 *649:wbs_dat_o[14] *613:19 0.169643 
*END

*D_NET *614 0.178015
*CONN
*P wbs_dat_o[15] O
*I *649:wbs_dat_o[15] O *D vco_adc_wrapper
*CAP
1 wbs_dat_o[15] 0.0433068
2 *649:wbs_dat_o[15] 0.000346838
3 *614:19 8.30043e-06
4 *614:10 0.0433068
5 *614:8 0.0182391
6 *614:6 0.0185777
7 *614:8 *616:8 0.0466348
8 *614:8 *619:10 0.000714629
9 *614:8 *626:8 0.00618169
10 *614:8 *630:8 0.000698052
11 *649:wbs_dat_i[1] wbs_dat_o[15] 0
*RES
1 *649:wbs_dat_o[15] *614:6 10.1064 
2 *614:6 *614:8 79.9689 
3 *614:8 *614:10 3.41 
4 *614:10 wbs_dat_o[15] 885.277 
5 *649:wbs_dat_o[15] *614:19 0.169643 
*END

*D_NET *615 0.20684
*CONN
*P wbs_dat_o[16] O
*I *649:wbs_dat_o[16] O *D vco_adc_wrapper
*CAP
1 wbs_dat_o[16] 0.000855394
2 *649:wbs_dat_o[16] 0.042777
3 *615:19 8.30043e-06
4 *615:8 0.0123616
5 *615:6 0.0115062
6 *615:4 0.0427687
7 *615:8 *617:8 0.0481495
8 *615:8 *633:8 0.000444335
9 *615:8 *635:8 0.000557585
10 *615:8 *641:11 0.000218
11 *615:8 *642:9 0.000789871
12 *555:9 *615:8 0
13 *607:9 *615:8 0.000701066
14 *610:18 *615:8 0.000614126
15 *613:8 *615:8 0.0450884
*RES
1 *649:wbs_dat_o[16] *615:4 876.125 
2 *615:4 *615:6 3.41 
3 *615:6 *615:8 82.3471 
4 *615:8 wbs_dat_o[16] 19.2582 
5 *649:wbs_dat_o[16] *615:19 0.169643 
*END

*D_NET *616 0.247787
*CONN
*P wbs_dat_o[17] O
*I *649:wbs_dat_o[17] O *D vco_adc_wrapper
*CAP
1 wbs_dat_o[17] 0.0276479
2 *649:wbs_dat_o[17] 0.000376978
3 *616:19 8.30043e-06
4 *616:10 0.0276479
5 *616:8 0.0111677
6 *616:6 0.0115364
7 *616:8 *618:8 0.0496888
8 *616:8 *626:8 0.00106464
9 *616:8 *630:8 0.00115664
10 *616:8 *634:8 0.000410623
11 *565:13 wbs_dat_o[17] 0.0704463
12 *614:8 *616:8 0.0466348
*RES
1 *649:wbs_dat_o[17] *616:6 10.7136 
2 *616:6 *616:8 84.7974 
3 *616:8 *616:10 3.41 
4 *616:10 wbs_dat_o[17] 884.67 
5 *649:wbs_dat_o[17] *616:19 0.169643 
*END

*D_NET *617 0.224298
*CONN
*P wbs_dat_o[18] O
*I *649:wbs_dat_o[18] O *D vco_adc_wrapper
*CAP
1 wbs_dat_o[18] 0.000805488
2 *649:wbs_dat_o[18] 0.0442018
3 *617:19 8.30043e-06
4 *617:8 0.0127522
5 *617:6 0.0119468
6 *617:4 0.0441935
7 *617:8 *620:8 0.0512143
8 *617:8 *633:8 0.000670655
9 *617:8 *635:8 0.00222342
10 *555:9 *617:8 0
11 *569:9 *617:8 0.000721391
12 *594:9 *617:8 0.00217445
13 *607:9 *617:8 0.00412069
14 *610:18 *617:8 0.00111566
15 *615:8 *617:8 0.0481495
*RES
1 *649:wbs_dat_o[18] *617:4 876.732 
2 *617:4 *617:6 3.41 
3 *617:6 *617:8 87.1756 
4 *617:8 wbs_dat_o[18] 18.6511 
5 *649:wbs_dat_o[18] *617:19 0.169643 
*END

*D_NET *618 0.218489
*CONN
*P wbs_dat_o[19] O
*I *649:wbs_dat_o[19] O *D vco_adc_wrapper
*CAP
1 wbs_dat_o[19] 0.0439753
2 *649:wbs_dat_o[19] 0.000405823
3 *618:19 8.30043e-06
4 *618:10 0.0439753
5 *618:8 0.0117598
6 *618:6 0.0121573
7 wbs_dat_o[19] *649:wbs_sel_i[2] 0
8 *618:8 *621:8 0.0527297
9 *618:8 *626:8 0.000717195
10 *618:8 *634:8 0.00181833
11 *618:8 *639:8 0.000603088
12 *609:8 *618:8 0.000650321
13 *616:8 *618:8 0.0496888
*RES
1 *649:wbs_dat_o[19] *618:6 11.3207 
2 *618:6 *618:8 89.6259 
3 *618:8 *618:10 3.41 
4 *618:10 wbs_dat_o[19] 884.062 
5 *649:wbs_dat_o[19] *618:19 0.169643 
*END

*D_NET *619 0.150133
*CONN
*P wbs_dat_o[1] O
*I *649:wbs_dat_o[1] O *D vco_adc_wrapper
*CAP
1 wbs_dat_o[1] 0.0429785
2 *649:wbs_dat_o[1] 0.000408702
3 *619:19 8.30043e-06
4 *619:10 0.0489744
5 *619:6 0.00639628
6 *619:10 *630:8 0.0251821
7 *619:10 *639:8 0.00232598
8 *608:10 *619:10 0.023144
9 *614:8 *619:10 0.000714629
*RES
1 *649:wbs_dat_o[1] *619:6 11.3207 
2 *619:6 *619:10 47.2015 
3 *619:10 wbs_dat_o[1] 884.062 
4 *649:wbs_dat_o[1] *619:19 0.169643 
*END

*D_NET *620 0.242055
*CONN
*P wbs_dat_o[20] O
*I *649:wbs_dat_o[20] O *D vco_adc_wrapper
*CAP
1 wbs_dat_o[20] 0.000781185
2 *649:wbs_dat_o[20] 0.0427716
3 *620:19 8.30043e-06
4 *620:8 0.0135592
5 *620:6 0.012778
6 *620:4 0.0427633
7 *620:8 *622:8 0.0117166
8 *620:8 *623:8 0.010338
9 *620:8 *625:8 0.000453939
10 *620:8 *627:8 0.0455555
11 *620:8 *633:8 0.000242084
12 *555:9 *620:8 0
13 *569:9 *620:8 0.000546501
14 *570:9 *620:8 0.00122166
15 *571:9 *620:8 0.00192032
16 *610:18 *620:8 0.00585349
17 *611:8 *620:8 0.000330714
18 *617:8 *620:8 0.0512143
*RES
1 *649:wbs_dat_o[20] *620:4 877.339 
2 *620:4 *620:6 3.41 
3 *620:6 *620:8 92.0041 
4 *620:8 wbs_dat_o[20] 18.0439 
5 *649:wbs_dat_o[20] *620:19 0.169643 
*END

*D_NET *621 0.234005
*CONN
*P wbs_dat_o[21] O
*I *649:wbs_dat_o[21] O *D vco_adc_wrapper
*CAP
1 wbs_dat_o[21] 0.043966
2 *649:wbs_dat_o[21] 0.000435843
3 *621:19 8.30043e-06
4 *621:10 0.043966
5 *621:8 0.0122138
6 *621:6 0.0126414
7 wbs_dat_o[21] *633:4 0
8 *621:8 *624:8 0.0539697
9 *621:8 *626:8 0.00053598
10 *621:8 *634:8 0.00390323
11 *621:8 *636:8 0.000709911
12 *621:8 *639:8 0.00433709
13 *609:8 *621:8 0.00458752
14 *618:8 *621:8 0.0527297
*RES
1 *649:wbs_dat_o[21] *621:6 11.9279 
2 *621:6 *621:8 94.4543 
3 *621:8 *621:10 3.41 
4 *621:10 wbs_dat_o[21] 883.455 
5 *649:wbs_dat_o[21] *621:19 0.169643 
*END

*D_NET *622 0.202113
*CONN
*P wbs_dat_o[22] O
*I *649:wbs_dat_o[22] O *D vco_adc_wrapper
*CAP
1 wbs_dat_o[22] 0.000804463
2 *649:wbs_dat_o[22] 0.0427011
3 *622:19 8.30043e-06
4 *622:8 0.015415
5 *622:6 0.0146106
6 *622:4 0.0426928
7 *622:8 *623:8 0.0566526
8 *649:wbs_adr_i[4] wbs_dat_o[22] 3.10885e-05
9 *570:9 *622:8 0.000893513
10 *607:9 *622:8 0.0165875
11 *620:8 *622:8 0.0117166
*RES
1 *649:wbs_dat_o[22] *622:4 876.884 
2 *622:4 *622:6 4.5 
3 *622:6 *622:8 551.714 
4 *622:8 wbs_dat_o[22] 19.5893 
5 *649:wbs_dat_o[22] *622:19 0.169643 
*END

*D_NET *623 0.228753
*CONN
*P wbs_dat_o[23] O
*I *649:wbs_dat_o[23] O *D vco_adc_wrapper
*CAP
1 wbs_dat_o[23] 0.00079368
2 *649:wbs_dat_o[23] 0.0427026
3 *623:19 8.30043e-06
4 *623:8 0.00871911
5 *623:6 0.00792543
6 *623:4 0.0426943
7 *623:8 *625:8 0.0564528
8 *570:9 *623:8 0.00143869
9 *571:9 *623:8 0.00102761
10 *620:8 *623:8 0.010338
11 *622:8 *623:8 0.0566526
*RES
1 *649:wbs_dat_o[23] *623:4 877.188 
2 *623:4 *623:6 4.5 
3 *623:6 *623:8 565.679 
4 *623:8 wbs_dat_o[23] 19.2857 
5 *649:wbs_dat_o[23] *623:19 0.169643 
*END

*D_NET *624 0.256065
*CONN
*P wbs_dat_o[24] O
*I *649:wbs_dat_o[24] O *D vco_adc_wrapper
*CAP
1 wbs_dat_o[24] 0.0439494
2 *649:wbs_dat_o[24] 0.0004854
3 *624:19 8.30043e-06
4 *624:10 0.0439494
5 *624:8 0.0137881
6 *624:6 0.0142652
7 *624:8 *628:8 0.0567771
8 *624:8 *636:8 0.00519074
9 *649:wbs_adr_i[5] wbs_dat_o[24] 0
10 *649:wbs_dat_i[6] *624:8 0.000329806
11 *597:9 *624:8 0.0102433
12 *599:17 *624:8 0.0110455
13 *605:17 *624:8 0.000359738
14 *606:9 *624:8 0.000772247
15 *610:10 *624:8 0.000931161
16 *621:8 *624:8 0.0539697
*RES
1 *649:wbs_dat_o[24] *624:6 12.535 
2 *624:6 *624:8 101.661 
3 *624:8 *624:10 3.41 
4 *624:10 wbs_dat_o[24] 882.848 
5 *649:wbs_dat_o[24] *624:19 0.169643 
*END

*D_NET *625 0.236348
*CONN
*P wbs_dat_o[25] O
*I *649:wbs_dat_o[25] O *D vco_adc_wrapper
*CAP
1 wbs_dat_o[25] 0.000750852
2 *649:wbs_dat_o[25] 0.0426834
3 *625:19 8.30043e-06
4 *625:8 0.00956826
5 *625:6 0.00881741
6 *625:4 0.0426751
7 *625:8 *627:8 0.0137069
8 *625:8 *637:8 0.00175472
9 *571:9 *625:8 0.00122174
10 *596:9 *625:8 0.0582546
11 *620:8 *625:8 0.000453939
12 *623:8 *625:8 0.0564528
*RES
1 *649:wbs_dat_o[25] *625:4 877.491 
2 *625:4 *625:6 4.5 
3 *625:6 *625:8 593.196 
4 *625:8 wbs_dat_o[25] 18.9821 
5 *649:wbs_dat_o[25] *625:19 0.169643 
*END

*D_NET *626 0.159396
*CONN
*P wbs_dat_o[26] O
*I *649:wbs_dat_o[26] O *D vco_adc_wrapper
*CAP
1 wbs_dat_o[26] 0.0434162
2 *649:wbs_dat_o[26] 0.000333052
3 *626:19 8.30043e-06
4 *626:10 0.0434162
5 *626:8 0.0311601
6 *626:6 0.0314848
7 *626:8 *639:8 0.00107786
8 *599:17 *626:8 0
9 *609:8 *626:8 0
10 *614:8 *626:8 0.00618169
11 *616:8 *626:8 0.00106464
12 *618:8 *626:8 0.000717195
13 *621:8 *626:8 0.00053598
*RES
1 *649:wbs_dat_o[26] *626:6 11.0446 
2 *626:6 *626:8 606.75 
3 *626:8 *626:10 4.5 
4 *626:10 wbs_dat_o[26] 885.429 
5 *649:wbs_dat_o[26] *626:19 0.169643 
*END

*D_NET *627 0.261274
*CONN
*P wbs_dat_o[27] O
*I *649:wbs_dat_o[27] O *D vco_adc_wrapper
*CAP
1 wbs_dat_o[27] 0.000728891
2 *649:wbs_dat_o[27] 0.0426808
3 *627:19 8.30043e-06
4 *627:8 0.0176433
5 *627:6 0.0169144
6 *627:4 0.0426725
7 *627:8 *629:8 0.00132246
8 *627:8 *632:8 0.0614602
9 *627:8 *637:8 0.00111185
10 *596:9 *627:8 0.0138345
11 *611:8 *627:8 0.00363426
12 *620:8 *627:8 0.0455555
13 *625:8 *627:8 0.0137069
*RES
1 *649:wbs_dat_o[27] *627:4 877.946 
2 *627:4 *627:6 3.41 
3 *627:6 *627:8 108.868 
4 *627:8 wbs_dat_o[27] 17.4368 
5 *649:wbs_dat_o[27] *627:19 0.169643 
*END

*D_NET *628 0.259502
*CONN
*P wbs_dat_o[28] O
*I *649:wbs_dat_o[28] O *D vco_adc_wrapper
*CAP
1 wbs_dat_o[28] 0.0446362
2 *649:wbs_dat_o[28] 0.000511806
3 *628:19 8.30043e-06
4 *628:10 0.0446362
5 *628:8 0.026146
6 *628:6 0.0266495
7 *628:8 *631:8 0.0144633
8 *597:9 *628:8 0.00213857
9 *599:17 *628:8 0.00185905
10 *600:9 *628:8 0.025971
11 *606:9 *628:8 0.00120945
12 *610:10 *628:8 0.0144958
13 *624:8 *628:8 0.0567771
*RES
1 *649:wbs_dat_o[28] *628:6 13.1421 
2 *628:6 *628:8 111.318 
3 *628:8 *628:10 3.41 
4 *628:10 wbs_dat_o[28] 882.241 
5 *649:wbs_dat_o[28] *628:19 0.169643 
*END

*D_NET *629 0.225125
*CONN
*P wbs_dat_o[29] O
*I *649:wbs_dat_o[29] O *D vco_adc_wrapper
*CAP
1 wbs_dat_o[29] 0.000717719
2 *649:wbs_dat_o[29] 0.0426521
3 *629:19 8.30043e-06
4 *629:8 0.0218429
5 *629:6 0.0211252
6 *629:4 0.0426438
7 *629:8 *632:8 0.030463
8 *596:9 *629:8 0.0643493
9 *627:8 *629:8 0.00132246
*RES
1 *649:wbs_dat_o[29] *629:4 878.098 
2 *629:4 *629:6 4.5 
3 *629:6 *629:8 647.821 
4 *629:8 wbs_dat_o[29] 18.375 
5 *649:wbs_dat_o[29] *629:19 0.169643 
*END

*D_NET *630 0.154742
*CONN
*P wbs_dat_o[2] O
*I *649:wbs_dat_o[2] O *D vco_adc_wrapper
*CAP
1 wbs_dat_o[2] 0.042975
2 *649:wbs_dat_o[2] 0.000457953
3 *630:19 8.30043e-06
4 *630:10 0.042975
5 *630:8 0.00630215
6 *630:6 0.0067518
7 *630:8 *634:8 0.024871
8 *630:8 *643:9 0.00057432
9 *609:8 *630:8 0.00278936
10 *614:8 *630:8 0.000698052
11 *616:8 *630:8 0.00115664
12 *619:10 *630:8 0.0251821
*RES
1 *649:wbs_dat_o[2] *630:6 11.9279 
2 *630:6 *630:8 47.0345 
3 *630:8 *630:10 3.41 
4 *630:10 wbs_dat_o[2] 883.455 
5 *649:wbs_dat_o[2] *630:19 0.169643 
*END

*D_NET *631 0.25952
*CONN
*P wbs_dat_o[30] O
*I *649:wbs_dat_o[30] O *D vco_adc_wrapper
*CAP
1 wbs_dat_o[30] 0.0446831
2 *649:wbs_dat_o[30] 0.000472878
3 *631:19 8.30043e-06
4 *631:10 0.0446831
5 *631:8 0.00922704
6 *631:6 0.00969161
7 *649:wbs_dat_i[8] wbs_dat_o[30] 6.4974e-06
8 *597:9 *631:8 0.0657
9 *599:17 *631:8 0.00170577
10 *600:9 *631:8 0.0687384
11 *606:9 *631:8 0.000140088
12 *628:8 *631:8 0.0144633
*RES
1 *649:wbs_dat_o[30] *631:6 13.7768 
2 *631:6 *631:8 661.786 
3 *631:8 *631:10 4.5 
4 *631:10 wbs_dat_o[30] 882.696 
5 *649:wbs_dat_o[30] *631:19 0.169643 
*END

*D_NET *632 0.245964
*CONN
*P wbs_dat_o[31] O
*I *649:wbs_dat_o[31] O *D vco_adc_wrapper
*CAP
1 wbs_dat_o[31] 0.000685064
2 *649:wbs_dat_o[31] 0.0426398
3 *632:19 8.30043e-06
4 *632:8 0.0281148
5 *632:6 0.0274297
6 *632:4 0.0426315
7 *611:8 *632:8 0.0125315
8 *627:8 *632:8 0.0614602
9 *629:8 *632:8 0.030463
*RES
1 *649:wbs_dat_o[31] *632:4 878.554 
2 *632:4 *632:6 3.41 
3 *632:6 *632:8 118.525 
4 *632:8 wbs_dat_o[31] 16.8296 
5 *649:wbs_dat_o[31] *632:19 0.169643 
*END

*D_NET *633 0.154458
*CONN
*P wbs_dat_o[3] O
*I *649:wbs_dat_o[3] O *D vco_adc_wrapper
*CAP
1 wbs_dat_o[3] 0.000793371
2 *649:wbs_dat_o[3] 0.0427078
3 *633:19 8.30043e-06
4 *633:8 0.00535271
5 *633:6 0.00455933
6 *633:4 0.0426995
7 *633:8 *635:8 0.00334778
8 *633:8 *640:11 0.00194425
9 *633:8 *642:9 0.001418
10 wbs_dat_o[21] *633:4 0
11 *540:11 *633:8 0.000344482
12 *542:10 *633:8 0.000311826
13 *569:9 *633:8 0.0290405
14 *589:7 *633:4 0.000450705
15 *607:9 *633:8 0.0201228
16 *615:8 *633:8 0.000444335
17 *617:8 *633:8 0.000670655
18 *620:8 *633:8 0.000242084
*RES
1 *649:wbs_dat_o[3] *633:4 876.884 
2 *633:4 *633:6 4.5 
3 *633:6 *633:8 285.982 
4 *633:8 wbs_dat_o[3] 19.5893 
5 *649:wbs_dat_o[3] *633:19 0.169643 
*END

*D_NET *634 0.164084
*CONN
*P wbs_dat_o[4] O
*I *649:wbs_dat_o[4] O *D vco_adc_wrapper
*CAP
1 wbs_dat_o[4] 0.0429932
2 *649:wbs_dat_o[4] 0.000505414
3 *634:19 8.30043e-06
4 *634:10 0.0429932
5 *634:8 0.00654016
6 *634:6 0.00703728
7 *634:8 *636:8 0.0299916
8 *634:8 *639:8 0.000918842
9 *634:8 *643:9 0.00188021
10 *609:8 *634:8 0.000212929
11 *616:8 *634:8 0.000410623
12 *618:8 *634:8 0.00181833
13 *621:8 *634:8 0.00390323
14 *630:8 *634:8 0.024871
*RES
1 *649:wbs_dat_o[4] *634:6 12.535 
2 *634:6 *634:8 53.4484 
3 *634:8 *634:10 3.41 
4 *634:10 wbs_dat_o[4] 882.848 
5 *649:wbs_dat_o[4] *634:19 0.169643 
*END

*D_NET *635 0.16032
*CONN
*P wbs_dat_o[5] O
*I *649:wbs_dat_o[5] O *D vco_adc_wrapper
*CAP
1 wbs_dat_o[5] 0.000831295
2 *649:wbs_dat_o[5] 0.0428978
3 *635:19 8.30043e-06
4 *635:8 0.00734716
5 *635:6 0.00651586
6 *635:4 0.0428895
7 *635:8 *640:11 0.000201195
8 *635:8 *642:9 0.0231589
9 *635:8 *645:11 0.00228621
10 *561:7 *635:4 0
11 *604:13 *635:4 0
12 *607:9 *635:8 0.0273883
13 *613:8 *635:8 0.000666502
14 *615:8 *635:8 0.000557585
15 *617:8 *635:8 0.00222342
16 *633:8 *635:8 0.00334778
*RES
1 *649:wbs_dat_o[5] *635:4 876.277 
2 *635:4 *635:6 4.5 
3 *635:6 *635:8 318.429 
4 *635:8 wbs_dat_o[5] 20.1964 
5 *649:wbs_dat_o[5] *635:19 0.169643 
*END

*D_NET *636 0.180641
*CONN
*P wbs_dat_o[6] O
*I *649:wbs_dat_o[6] O *D vco_adc_wrapper
*CAP
1 wbs_dat_o[6] 0.0429948
2 *649:wbs_dat_o[6] 0.000562535
3 *636:19 8.30043e-06
4 *636:10 0.0429948
5 *636:8 0.00900489
6 *636:6 0.00955913
7 *636:8 *643:9 0.0267467
8 *605:17 *636:8 0.00297727
9 *606:9 *636:8 0.00888624
10 *610:10 *636:8 0.00101432
11 *621:8 *636:8 0.000709911
12 *624:8 *636:8 0.00519074
13 *634:8 *636:8 0.0299916
*RES
1 *649:wbs_dat_o[6] *636:6 13.1421 
2 *636:6 *636:8 58.2769 
3 *636:8 *636:10 3.41 
4 *636:10 wbs_dat_o[6] 882.241 
5 *649:wbs_dat_o[6] *636:19 0.169643 
*END

*D_NET *637 0.160025
*CONN
*P wbs_dat_o[7] O
*I *649:wbs_dat_o[7] O *D vco_adc_wrapper
*CAP
1 wbs_dat_o[7] 0.000699683
2 *649:wbs_dat_o[7] 0.0430791
3 *637:19 8.30043e-06
4 *637:8 0.0122361
5 *637:6 0.0115364
6 *637:4 0.0430708
7 *637:8 *641:11 0.00156745
8 *540:11 *637:8 0.000934799
9 *571:9 *637:8 0.0311997
10 *596:9 *637:8 0.0019574
11 *597:5 *637:4 0
12 *610:18 *637:8 0.0108682
13 *625:8 *637:8 0.00175472
14 *627:8 *637:8 0.00111185
*RES
1 *649:wbs_dat_o[7] *637:4 878.098 
2 *637:4 *637:6 4.5 
3 *637:6 *637:8 345.536 
4 *637:8 wbs_dat_o[7] 18.375 
5 *649:wbs_dat_o[7] *637:19 0.169643 
*END

*D_NET *638 0.19431
*CONN
*P wbs_dat_o[8] O
*I *649:wbs_dat_o[8] O *D vco_adc_wrapper
*CAP
1 wbs_dat_o[8] 0.000600379
2 *649:wbs_dat_o[8] 0.027443
3 *638:19 8.30043e-06
4 *638:8 0.016178
5 *638:6 0.0155776
6 *638:4 0.0274347
7 *638:8 *641:11 0.00116963
8 *541:11 *638:8 0.00159747
9 *600:5 *638:4 0.0708791
10 *610:18 *638:8 0.000894432
11 *611:8 *638:8 0.0325273
*RES
1 *649:wbs_dat_o[8] *638:4 879.768 
2 *638:4 *638:6 3.41 
3 *638:6 *638:8 63.1053 
4 *638:8 wbs_dat_o[8] 15.6154 
5 *649:wbs_dat_o[8] *638:19 0.169643 
*END

*D_NET *639 0.157905
*CONN
*P wbs_dat_o[9] O
*I *649:wbs_dat_o[9] O *D vco_adc_wrapper
*CAP
1 wbs_dat_o[9] 0.0431502
2 *649:wbs_dat_o[9] 0.000436204
3 *639:19 8.30043e-06
4 *639:10 0.0431502
5 *639:8 0.0117938
6 *639:6 0.0122217
7 *649:wb_rst_i wbs_dat_o[9] 0
8 *606:9 *639:8 0.000161297
9 *609:8 *639:8 0.0377205
10 *618:8 *639:8 0.000603088
11 *619:10 *639:8 0.00232598
12 *621:8 *639:8 0.00433709
13 *626:8 *639:8 0.00107786
14 *634:8 *639:8 0.000918842
*RES
1 *649:wbs_dat_o[9] *639:6 12.5625 
2 *639:6 *639:8 373.054 
3 *639:8 *639:10 4.5 
4 *639:10 wbs_dat_o[9] 883.911 
5 *649:wbs_dat_o[9] *639:19 0.169643 
*END

*D_NET *640 0.156301
*CONN
*P wbs_sel_i[0] I
*I *649:wbs_sel_i[0] I *D vco_adc_wrapper
*CAP
1 wbs_sel_i[0] 0.000733752
2 *649:wbs_sel_i[0] 0.0442779
3 *640:16 8.30043e-06
4 *640:11 0.0508739
5 *640:7 0.00733808
6 *640:11 *641:11 0.0235437
7 *640:11 *642:9 0.000155913
8 *640:11 *645:11 0.021581
9 wbs_dat_o[14] *649:wbs_sel_i[0] 0
10 *540:11 *640:11 0.00123294
11 *568:9 *640:11 0
12 *569:9 *640:11 0.00373473
13 *581:7 *649:wbs_sel_i[0] 0
14 *607:9 *640:11 0.000675781
15 *633:8 *640:11 0.00194425
16 *635:8 *640:11 0.000201195
*RES
1 wbs_sel_i[0] *640:7 18.0439 
2 *640:7 *640:11 44.8233 
3 *640:11 *649:wbs_sel_i[0] 877.339 
4 *649:wbs_sel_i[0] *640:16 0.169643 
*END

*D_NET *641 0.161218
*CONN
*P wbs_sel_i[1] I
*I *649:wbs_sel_i[1] I *D vco_adc_wrapper
*CAP
1 wbs_sel_i[1] 0.000704918
2 *649:wbs_sel_i[1] 0.0428354
3 *641:16 8.30043e-06
4 *641:11 0.0494594
5 *641:7 0.00733721
6 *540:11 *641:11 0.0138338
7 *541:11 *641:11 0.000546857
8 *551:7 *649:wbs_sel_i[1] 0.000291907
9 *569:9 *641:11 0.000768327
10 *570:9 *641:11 0.00459619
11 *571:9 *641:11 0.0041587
12 *610:18 *641:11 0.00938086
13 *613:8 *641:11 0.000797799
14 *615:8 *641:11 0.000218
15 *637:8 *641:11 0.00156745
16 *638:8 *641:11 0.00116963
17 *640:11 *641:11 0.0235437
*RES
1 wbs_sel_i[1] *641:7 17.4368 
2 *641:7 *641:11 47.9942 
3 *641:11 *649:wbs_sel_i[1] 877.946 
4 *649:wbs_sel_i[1] *641:16 0.169643 
*END

*D_NET *642 0.13883
*CONN
*P wbs_sel_i[2] I
*I *649:wbs_sel_i[2] I *D vco_adc_wrapper
*CAP
1 wbs_sel_i[2] 0.000850142
2 *649:wbs_sel_i[2] 0.0442264
3 *642:16 8.30043e-06
4 *642:11 0.0442181
5 *642:9 0.0094638
6 *642:7 0.0103139
7 *642:9 *645:11 0.00034253
8 wbs_dat_o[19] *649:wbs_sel_i[2] 0
9 *575:11 *642:9 0.00315057
10 *586:7 *649:wbs_sel_i[2] 0
11 *613:8 *642:9 0.000733343
12 *615:8 *642:9 0.000789871
13 *633:8 *642:9 0.001418
14 *635:8 *642:9 0.0231589
15 *640:11 *642:9 0.000155913
*RES
1 wbs_sel_i[2] *642:7 20.5 
2 *642:7 *642:9 272.429 
3 *642:9 *642:11 4.5 
4 *642:11 *649:wbs_sel_i[2] 875.973 
5 *649:wbs_sel_i[2] *642:16 0.169643 
*END

*D_NET *643 0.144342
*CONN
*P wbs_sel_i[3] I
*I *649:wbs_sel_i[3] I *D vco_adc_wrapper
*CAP
1 wbs_sel_i[3] 0.0429144
2 *649:wbs_sel_i[3] 0.000591937
3 *643:16 8.30043e-06
4 *643:9 0.0129024
5 *643:7 0.0123188
6 *643:5 0.0429144
7 *606:9 *643:9 0.00349023
8 *630:8 *643:9 0.00057432
9 *634:8 *643:9 0.00188021
10 *636:8 *643:9 0.0267467
*RES
1 wbs_sel_i[3] *643:5 881.634 
2 *643:5 *643:7 3.41 
3 *643:7 *643:9 51.0702 
4 *643:9 *649:wbs_sel_i[3] 13.7493 
5 *649:wbs_sel_i[3] *643:16 0.169643 
*END

*D_NET *644 0.125328
*CONN
*P wbs_stb_i I
*I *649:wbs_stb_i I *D vco_adc_wrapper
*CAP
1 wbs_stb_i 0.0429857
2 *649:wbs_stb_i 0.000343298
3 *644:16 8.30043e-06
4 *644:11 0.00908031
5 *644:5 0.051731
6 *608:10 *644:11 0.021179
*RES
1 wbs_stb_i *644:5 885.277 
2 *644:5 *644:11 44.1975 
3 *644:11 *649:wbs_stb_i 6.69643 
4 *649:wbs_stb_i *644:16 0.169643 
*END

*D_NET *645 0.145242
*CONN
*P wbs_we_i I
*I *649:wbs_we_i I *D vco_adc_wrapper
*CAP
1 wbs_we_i 0.000762596
2 *649:wbs_we_i 0.0425144
3 *645:16 8.30043e-06
4 *645:11 0.0477076
5 *645:7 0.00596413
6 *540:11 *645:11 0.000747331
7 *546:7 *649:wbs_we_i 0.000811649
8 *568:9 *645:11 0
9 *575:11 *645:11 0.0217247
10 *579:7 *649:wbs_we_i 0
11 *607:9 *645:11 0.00079151
12 *635:8 *645:11 0.00228621
13 *640:11 *645:11 0.021581
14 *642:9 *645:11 0.00034253
*RES
1 wbs_we_i *645:7 18.6511 
2 *645:7 *645:11 41.5803 
3 *645:11 *649:wbs_we_i 876.732 
4 *649:wbs_we_i *645:16 0.169643 
*END

*D_NET *646 0.158667
*CONN
*I *649:phase_in I *D vco_adc_wrapper
*I *648:quantizer_out O *D vco_adc2
*CAP
1 *649:phase_in 0.00056323
2 *648:quantizer_out 7.38882e-05
3 *646:21 0.0153288
4 *646:19 0.0147655
5 *646:17 0.0395872
6 *646:15 0.0396134
7 *646:13 0.00423947
8 *646:11 0.00428715
9 *646:21 *647:9 0.0402088
*RES
1 *648:quantizer_out *646:11 10.25 
2 *646:11 *646:13 86.7232 
3 *646:13 *646:15 0.535714 
4 *646:15 *646:17 816.196 
5 *646:17 *646:19 3.41 
6 *646:19 *646:21 63.9701 
7 *646:21 *649:phase_in 14.4011 
*END

*D_NET *647 0.226542
*CONN
*I *648:enable_in I *D vco_adc2
*I *649:vco_enb_o O *D vco_adc_wrapper
*CAP
1 *648:enable_in 5.40981e-05
2 *649:vco_enb_o 0.000512121
3 *647:17 0.00426736
4 *647:15 0.00423947
5 *647:13 0.0396422
6 *647:11 0.039616
7 *647:9 0.048745
8 *647:7 0.0492571
9 *646:21 *647:9 0.0402088
*RES
1 *649:vco_enb_o *647:7 13.7939 
2 *647:7 *647:9 161.116 
3 *647:9 *647:11 3.41 
4 *647:11 *647:13 816.804 
5 *647:13 *647:15 0.535714 
6 *647:15 *647:17 86.7232 
7 *647:17 *648:enable_in 10.0357 
*END
